Edited structure (unwrapped Cartesian)
1.0
   47.3761980000     0.0000000000     0.0000000000
   23.6879980000    41.0289990000     0.0000000000
    0.0000000000     0.0000000000    50.0000000000
H O H C O
1706 853 400 200 50
Cartesian
   12.2700004600     0.9099999700     0.6100000100
   12.9300003100    -0.4799985900     0.5799999800
   34.2799987800    40.2600021400     0.6599999700
   33.7299995400    39.0699996900     1.4600000400
   34.1300010700    36.8600006100     1.8899999900
   33.9899978600    37.5299987800     3.2599999900
   37.4099998500    38.2099990800     1.9499999300
   36.0699996900    37.6200027500     2.4200000800
   38.7099990800    39.4099998500     0.4500000200
   38.5299987800    40.2700004600     1.6799999500
    7.5999999000     0.7699999800     1.8799998800
    8.8599987000    -0.1000022900     1.9200000800
    9.3699998900     1.9900000100     2.3700001200
    9.7899999600     3.2500000000     3.1500001000
   11.4400005300     2.7399997700     1.5499999500
   12.0900001500     3.1600000900     0.2500000000
   13.8999996200     2.9400000600     1.8700001200
   15.3400001500     3.4900000100     1.8600000100
   16.0100002300     0.3100000000     3.4299998300
   15.3600006100     1.3500000200     2.5099997500
   15.2857866300     1.9236140300     7.2009744600
   16.5353241000     2.7153394200     6.7860865600
   14.4893312500     0.4378423400     8.6083765000
   13.5995054200     1.6906744200     8.4965286300
   12.0406389200     2.9733338400     7.5268964800
   12.0398616800     3.0460407700     9.0626106300
   12.8575601600     4.0481119200     5.7127704600
   12.0387802100     5.0860829400     6.4872288700
   14.4896068600     3.6338689300     4.0091552700
   14.8721742600     3.3219063300     5.4556078900
   38.6940918000    39.4279022200     7.7751011800
   37.4233970600    39.2620620700     8.6152458200
   38.8835411100    38.2253990200     5.7592415800
   40.2319297800    38.3935241700     6.4606642700
   16.2549953500     0.8306753600     5.5262370100
   16.2265815700    -0.7050943400     5.4628047900
    8.1280651100     1.2384992800     5.7592768700
    7.6287851300     2.4559128300     6.5515041400
    9.2424345000     3.2051005400     5.3107028000
   10.5515499100     3.9961752900     5.2616448400
   10.5600175900     1.5356872100     8.4227056500
    9.2287368800     1.4300634900     7.6742315300
   31.5406570400    41.1043853800     3.9886548500
   30.2590675400    40.9778556800     4.8275685300
   31.7185173000    39.5143356300     5.7535743700
   32.4999084500    38.1811828600     5.7239203500
   33.4377517700    40.4154205300     8.4094114300
   32.9217605600    39.1880874600     7.6388049100
   35.8208503700    37.3621215800     7.1121687900
   35.7691192600    35.8850669900     6.6981773400
   37.1833648700    36.8895645100     5.4205994600
   37.6934928900    37.1662292500     4.0023627300
   33.0645675700    36.2132911700     4.9245572100
   34.3042945900    36.9892005900     5.3901414900
   35.0701141400    38.7828102100     8.5103502300
   35.9249801600    37.7822647100     9.2983818100
   24.6732616400     7.1483039900     6.7592930800
   23.1371002200     7.1136288600     6.7775096900
   26.5514183000     8.3075532900     6.9969568300
   26.5222339600     7.4346880900     5.7288389200
   21.2351226800     8.3470134700     7.0682811700
   22.0255699200     8.8223075900     5.8382453900
   23.8799839000     3.5134658800     6.8103714000
   23.9143276200     4.9962558700     6.4174614000
   19.8800010700     4.5900001500     0.2200000000
   20.1500015300     3.9199998400     1.5399999600
   23.0699996900     2.7699999800     1.3800000000
   24.6100006100     2.7200002700     1.3199999300
   21.0799999200     2.1300001100     2.2699999800
   21.5300006900     3.2800002100     3.1799998300
   20.1799984000     8.1800003100     1.6100000100
   21.5499992400     8.3299999200     1.0099999900
   19.7700004600     6.6300001100     3.3800001100
   19.5299987800     6.0000000000     2.0000000000
   28.2399978600     5.1399998700     1.5299999700
   29.2099990800     4.0799999200     1.0499999500
   26.9300003100     3.3399999100     1.6799999500
   26.1999988600     3.1600000900     3.0199999800
   28.0800018300     7.4299998300     1.9900000100
   27.9800014500     6.5600004200     3.2699999800
   27.1599998500     8.7199993100     0.2500000000
   27.1399993900     9.4899997700     1.5700000500
   24.7700004600    11.2500000000     1.5700000500
   24.3099994700    12.6599998500     1.2400000100
   22.6000003800    11.1600008000     1.9800000200
   21.4099998500    10.1800003100     1.9700000300
   26.6300010700    11.5100002300     2.3899998700
   25.8699989300    10.5299997300     3.2899999600
   30.4975795700    37.9322242700     6.6602106100
   29.6753387500    37.4615669300     7.8627972600
   28.1050335800    40.3456865800     5.1027536400
   28.2109481700    41.1721900500     3.7984416500
   27.0291538200    38.3379669200     5.5306301100
   28.3252067600    38.4163360600     6.3450460400
   32.2483825700    34.3162460300     4.1116704900
   31.3775730100    34.7178878800     5.3247633000
   28.9614791900    34.8016700700     5.5729799300
   29.7721386000    35.8269157400     6.3618793500
   26.5100002300    34.5200004600     1.3500000200
   25.7200012200    35.8400001500     1.2599999900
   27.5373668700     9.6750431100     8.4873056400
   26.9738979300     8.4182052600     9.1636009200
   15.2400007200    12.1700000800     2.4400000600
   16.5699996900    12.8299999200     2.0299999700
   49.2200012200    38.1100006100     1.8000000700
   49.2799987800    37.2600021400     3.0799999200
   33.9599990800    35.3400001500     0.1499999900
   35.0600013700    35.0799980200     1.1800000700
   20.9699993100    12.3500003800     2.4900000100
   21.0999984700    13.7899990100     1.9700000300
   31.2761573800     8.2893829300     8.4117841700
   31.9783420600     9.6615657800     8.3750000000
   32.4404907200    11.7519941300     7.7127027500
   32.3798980700    11.7165756200     9.2416896800
    6.4400000600     1.2599999900    -0.0899982500
    6.6799998300     2.3199999300     0.9799999600
   28.5599994700     0.8299999800     1.6400001000
   27.1900005300     1.3400000300     2.0999999000
   29.7423477200    13.3307972000     7.4935584100
   30.4125900300    12.2693767500     8.3690099700
   12.7892923400     7.2908258400     6.6526770600
   11.2523098000     7.2369566000     6.6299958200
   14.7369012800     7.5774669600     5.7220602000
   14.6560077700     8.4563789400     6.9727664000
    9.3348941800     8.3059206000     6.9057588600
    9.2406711600     7.3977952000     5.6757164000
   16.0784645100     6.5282697700     4.1895370500
   15.2775840800     5.5023651100     5.0138206500
    7.9318752300     6.2812380800     4.0564909000
    8.7524204300     5.3328876500     4.9336333300
    8.3199996900     3.5699999300     1.5499999500
    7.4499998100     4.7999997100     1.6500001000
   45.3347015400    40.5577316300     8.4407033900
   44.8316040000    39.2866783100     9.1284666100
   46.8994293200    38.8230056800     8.5492057800
   47.6839218100    37.7583770800     7.7713832900
   31.4899997700     7.1799998300     1.9700000300
   30.1399993900     6.5600004200     2.4099998500
   16.5599994700     4.7400002500     0.1499999900
   17.6199989300     4.2899999600     1.1399999900
   50.3942108200    39.4675674400     7.5150480300
   49.1908416700    39.2429695100     8.4515457200
   17.7000007600     6.9000001000     2.6199998900
   16.6499996200     5.9299998300     2.0799999200
   11.9600000400    11.9500007600     0.5400000200
   11.1700000800    11.0000000000     1.4300000700
   32.8600006100    11.6800003100     2.3299999200
   33.6100006100    10.6700000800     3.2100000400
   13.5200004600    10.8400001500     1.8899999900
   14.8400001500    10.0600004200     2.0299999700
   23.8624458300     3.0966129300     9.1073989900
   24.6402263600     2.0677144500     8.2898740800
   41.7204704300    37.5470047000     7.7593774800
   42.4692916900    38.0619125400     6.5241665800
   44.3953552200    39.1978988600     6.9206438100
   44.4396591200    38.3626747100     5.6354723000
   42.0368749500    41.1986478300     4.9721841800
   43.3170873600    40.4337298000     5.3491439800
   40.9558486900    34.7759704600     5.5641074200
   41.6966095000    35.8803482100     6.3369379000
   38.9340934800    35.4800224300     4.8028712300
   38.9430007900    34.0334587100     5.3176202800
   36.9500007600    35.7999992400     1.7599999900
   37.6800003100    34.4599990800     1.6799999500
   14.9905548100     8.5806245800     9.1846904800
   15.5430593500     9.8158035300     8.4575729400
   27.4699993100    13.4700002700     3.1400001000
   28.1699981700    13.0200004600     1.8400000300
   16.3416328400    11.9834842700     8.4364099500
   14.9978694900    11.8625879300     7.7069435100
   45.9899978600    34.8699989300     0.3400000300
   45.5699996900    36.0299987800     1.2500000000
   32.5299987800    13.7899990100     1.8000000700
   31.1800003100    13.0700006500     1.9499999300
   20.7994670900     8.5912008300     9.2192564000
   19.4438228600     8.4901504500     8.5135746000
   45.9600029000    38.1300010700     1.9200000800
   47.1899986300    37.2700004600     2.2300000200
   40.9100000300    41.3699995600     1.5299999700
   41.8300001100    40.2499996700     1.0499999500
   19.9899997700     0.4600000100     3.3099999400
   19.5000000000     0.5299999700     1.8600000100
   17.9146156300    13.3593034700     7.4554615000
   18.7268905600    12.3623523700     8.3008613600
   21.3481903100    13.0386772200     5.9478111300
   21.2904758500    12.1315002400     7.1899852800
   20.2752342200    10.6409750000     8.4587268800
   20.8292694100    11.8215675400     9.2660427100
   22.3149967200    11.0375509300     5.5430026100
   22.2599582700    10.4661827100     4.1179423300
   27.8784523000     1.3858486400     5.6693277400
   27.0681228600     1.8348265900     6.8988695100
   26.2160091400     0.4091377900     8.3598871200
   26.7087917300     1.5814752600     9.2160263100
   25.3193950700     3.8682577600     5.0892138500
   26.6907844500     3.1944119900     5.1816043900
   23.8700008400     0.0400000000    -0.9000015300
   23.8700008400     0.9499999900     0.3200006500
   46.2699966400    40.1700019800     0.8500000200
   45.0000000000    40.3599968000     1.6900000600
   50.3199996900    40.3300018300     1.4800000200
   48.9500007600    40.1800003100     0.7999999500
   18.2000007600    11.0099992800     0.6800000700
   19.0900001500     9.7700004600     0.5600000000
   16.6399993900     9.3400001500     0.9099999700
   16.1399993900     8.1900005300     1.7799999700
   18.0499992400    13.7100009900     0.7699999800
   18.9799995400    12.9400005300     1.6900000600
   33.7040557900    11.6788587600     5.8682036400
   33.0413322400    13.0670337700     5.9052524600
   43.2655487100    34.8021278400     5.2880854600
   44.0212020900    34.4200973500     3.9984340700
   10.2202558500     9.5402813000     5.2668294900
   11.4294614800    10.3810291300     4.8289089200
   30.4469146700     5.9518919000     5.8375115400
   29.7041664100     4.8602824200     6.6124029200
   26.9500656100     5.3485727300     4.7893433600
   28.1839942900     6.0323071500     5.4045038200
   29.7395019500     6.7746248200     7.7426118900
   29.0169239000     7.8923645000     8.5007419600
   25.8271694200    11.6913423500     5.8165688500
   26.5953731500    12.1030721700     7.0831661200
   27.0168285400    11.6633176800     9.3599405300
   28.2305259700    11.8774080300     8.4529628800
   25.5283050500     9.5108966800     5.3677392000
   24.2807045000    10.2943029400     4.9429369000
   29.2799987800     9.5799999200     0.7300000200
   30.8100013700     9.5100002300     0.6499999800
   33.1500015300     8.0699996900     1.0800000400
   32.6300010700     9.3900003400     1.6100000100
   29.8499984700    11.7799997300     0.8700000000
   29.8999996200    13.1200008400     0.1499999900
   13.3521366100    12.9261579500     6.6461448700
   13.7619705200    11.7149334000     5.7971997300
   26.8746681200    34.0806694000     5.3604788800
   27.4569110900    34.3075981100     3.9572625200
   13.5615644500    10.4590492200     4.0180196800
   13.5257587400     9.5805320700     5.2853779800
   46.8504371600    36.9462738000     5.7984533300
   47.5898933400    35.8853302000     6.6293525700
   26.5903396600    36.2552108800     4.7624568900
   25.3516235400    36.9992485000     5.2908968900
   45.7001800500    37.2433700600     3.9397954900
   44.9551010100    36.2950248700     4.8843331300
   19.7796897900     1.5321599200     5.9397687900
   20.5904274000     2.8299002600     5.9026708600
   22.3833694500     3.9025380600     5.2308039700
   21.0935096700     4.6745758100     4.8850088100
   22.3385582000     1.6738467200     8.5113229800
   20.9729976700     1.6402496100     7.8088607800
   17.2228145600     6.2058882700     5.9804229700
   17.9818725600     5.1693496700     6.8182559000
   19.4670429200     6.1409754800     5.5114030800
   20.8207435600     6.8552489300     5.4409093900
   17.0978565200     8.0938816100     8.5991411200
   17.9836807300     7.0631141700     7.8922109600
   35.7599983200    13.4800005000    -1.2300033600
   36.3700027500    13.8900003400     0.1000022900
   47.4805870100    34.2248878500     8.1913976700
   46.7075119000    33.7775840800     6.9465870900
   30.5921917000    37.8969039900     9.9062204400
   29.8598003400    36.5474853500     9.8836622200
   41.0430183400    38.0332832300     9.8938455600
   42.5765419000    38.0074958800     9.8164625200
   12.7183971400     7.2067995100     9.9423580200
   11.9956979800     6.7211909300     8.6713333100
   18.6796073900     3.0996279700     7.1159000400
   17.9157085400     3.5573606500     8.3760414100
    6.1607480000     3.1855239900     8.0615015000
    5.3862905500     2.8305769000     6.7770190200
   36.6304969800    33.8316040000     6.9399690600
   35.0926742600    33.7743721000     6.9900507900
   35.7043457000    14.5101938200    10.2271385200
   36.3863792400    13.1296834900    10.2172489200
   34.1224327100    12.7890300800    10.3071889900
   33.6574363700    11.5509185800    11.0800304400
   10.3091764500     9.3916540100    11.4240074200
   10.3017721200    10.0664959000    12.8054618800
   13.6121673600    10.9189558000    11.6872739800
   12.3291416200    10.1657762500    12.0593109100
   14.5870256400    11.9766159100     9.9094867700
   14.7270698500    12.8988456700    11.1204710000
   43.0099639900    34.8247261000    11.4573774300
   44.2788085900    33.9689216600    11.5188312500
   44.7546920800    36.0967407200    11.9677591300
   45.2685775800    37.2226638800    12.8724899300
   46.8465766900    36.8050689700    11.1984262500
   47.6844596900    37.2783966100     9.9971399300
   25.5320644400    36.8507843000    11.5196266200
   26.8595085100    37.6226539600    11.4178524000
   27.9872589100    34.3157653800    12.6252155300
   27.2414417300    35.4208297700    11.8454551700
   31.5400352500    13.7439308200    13.6589469900
   30.2839298200    13.6864318800    14.5338144300
   31.7572498300    12.1300745000    15.4760942500
   32.5289382900    10.8088989300    15.3695306800
   35.6432380700    37.8476028400    16.4439430200
   35.5147857700    39.3335342400    16.0895309400
   32.5432395900    38.9146194500     9.7616281500
   32.5421600300    38.0346450800    11.0228118900
   35.0860748300    36.9074554400    11.1657533600
   36.6270408600    36.9627533000    11.1877384200
   33.0566330000    36.0730285600    11.9474840200
   33.4538803100    37.2313423200    12.8747673000
    8.1225023300     1.2112963200    11.1599044800
    8.8798189200     1.6735844600     9.9041042300
   31.5157470700    40.6101570100    12.8535709400
   31.4662628200    40.0328598000    11.4332923900
   39.9897499100    39.5873298600    11.2040605500
   39.2129745500    39.1886596700     9.9326686900
   38.7374801600    37.7256660500    11.5156889000
   38.0667381300    37.5785865800    12.8814926100
   16.3651559900     0.7436450400    11.8044672000
   16.3176477500    -0.1005474600    13.0937347400
   15.3183307600     1.8875950600    10.1243286100
   15.2012329100     2.7791013700    11.3715181400
   12.8302898400     4.0554876300    10.9989843400
   12.0420436900     5.0487475400    10.1275625200
   10.6553955100     4.0124936100    11.3767194700
    9.3404016500     3.2337210200    11.4991321600
   14.6308002500     4.8513751000    12.0738878300
   13.9686679800     3.8281321500    13.0054769500
   40.1617012000    33.5475997900    14.8014936400
   40.0778350800    34.4782867400    13.5668668700
   27.3292846700    10.8534469600    15.0878276800
   28.5815258000    10.9826364500    15.9512519800
   26.5353736900     7.2400646200    11.0873394000
   25.8054580700     8.5970420800    11.0466718700
   26.9894027700     5.2860946700    12.0806140900
   28.2907371500     5.9485244800    11.6029110000
   25.7080154400    10.7598094900    11.6072092100
   25.6934776300     9.8836107300    12.8769350100
    9.3121500000     8.2562179600     9.7663421600
   10.5733070400     7.5094394700    10.2273368800
    8.9265718500     5.3906402600    11.9660987900
    8.8795833600     6.8451972000    11.4696731600
   41.5911941500    34.4966201800     9.6795759200
   41.6977119400    35.9893455500    10.0437488600
   40.2315444900    34.8890075700    11.4081239700
   38.9906616200    35.5945129400    11.9799661600
   44.4221725500    38.1285858200    11.0532484100
   43.6442108200    39.4588432300    11.1313743600
   19.6374567100     0.5697253700    11.6917018900
   18.4180772900    -0.2091290000    12.1842756300
   27.2253456100    39.1483535800     9.7768335300
   28.4664802600    38.3381500200    10.1816501600
   29.4804725600    40.8623848000    12.0485649100
   28.2209491700    40.1314582800    11.5579204600
   23.8903961200     4.9970479000    10.2445554700
   23.0860137900     3.9596653000    11.0276527400
   21.1220130900     4.7444052700    11.9474868800
   21.9093475300     3.7314357800    12.7875595100
   25.3413562800     3.8676562300    11.4989261600
   26.6748065900     3.1149649600    11.5755796400
   20.8318119000    11.6200656900    16.5560436200
   20.7105426800    10.7018413500    15.3532218900
   18.4473552700    13.4124183700    14.2760582000
   19.6575508100    12.6569929100    14.8320980100
   13.7843046200     8.8299608200    11.1312503800
   14.5382700000     7.4904956800    11.1136856100
   15.4993400600     6.6500978500    13.0184078200
   16.3182086900     6.3128066100    11.7518816000
   22.4239540100     7.4903101900    10.2794160800
   22.0152778600     8.7048664100    11.1297397600
   20.7539768200     6.8885326400    11.5431222900
   19.3765277900     6.2321100200    11.7251119600
   22.3739776600    10.8118114500    11.5749568900
   23.6003494300    10.0064964300    12.0414009100
   29.1499824500    34.7917671200    10.9097576100
   29.8860893200    34.3623886100     9.6363430000
   31.8781623800    34.3356857300    12.8021898300
   31.3978996300    34.6959457400    11.3878717400
   39.5429153400    35.5797729500    15.3483867600
   38.1137695300    35.8354263300    15.8170328100
   37.1341362000    38.3764839200    14.7998666800
   38.4543190000    37.6119079600    14.9736042000
   24.0236282300    14.5329837800    10.2509870500
   24.0411987300    13.6548347500     8.9994821500
   22.6376800500    12.6878452300    10.3830061000
   21.3094120000    12.8412294400    11.1292371700
   26.7248745000    12.9088153800    11.2579956100
   25.3980178800    12.7343034700    10.5131635700
    6.1489925400     4.0674142800    10.1230096800
    6.9897728000     2.7743167900    10.1250314700
   28.4392089800     2.3905537100    10.3435192100
   27.9330711400     1.2285678400    11.2140760400
   29.7877502400     6.2867093100     9.9278669400
   30.5721569100     5.9037284900    11.1921272300
   17.1566810600     3.0473356200    10.4100971200
   18.6870632200     2.9987275600    10.3442688000
   20.5351982100     1.7326502800     9.9677476900
   20.6072826400     2.6680877200    11.1812572500
   17.8709735900     5.2068138100    10.6350498200
   17.8847332000     6.6672463400    10.1508026100
   23.2998065900     9.2773189500    15.5550394100
   24.0745811500     8.2998828900    16.4477424600
   26.7851429000     8.7802038200    14.5048904400
   25.5328598000     9.4760217700    15.0565891300
   22.0855598400     9.7450723600    13.7239856700
   21.3334159900     8.7375717200    14.6097860300
   31.5343780500    35.3729896500    15.4214649200
   32.2548332200    36.7192611700    15.4698867800
   34.1635360700    38.0019874600    14.8528976400
   32.8411216700    38.6642189000    14.4610796000
   24.6089191400     7.0648927700    10.0069599200
   23.8445854200     6.5972204200     8.7578029600
   24.1100006100    21.4200000800     0.6100000100
   24.7700004600    20.0300006900     0.5799999800
   22.4300003100    19.7399997700     0.6599999700
   21.8799991600    18.5499992400     1.4600000400
   22.2799987800    16.3400001500     1.8899999900
   22.1399993900    17.0100002300     3.2599999900
   25.5599994700    17.6900005300     1.9499999300
   24.2199993100    17.1000003800     2.4200000800
   26.8600006100    18.8900013000     0.4500000200
   26.6800003100    19.7500000000     1.6799999500
   19.4400005300    21.2800006900     1.8799998800
   20.6999988600    20.4099998500     1.9200000800
   21.2100009900    22.5000000000     2.3700001200
   21.6300010700    23.7599983200     3.1500001000
   23.2800006900    23.2500000000     1.5499999500
   23.9299984000    23.6700019800     0.2500000000
   25.7399978600    23.4500007600     1.8700001200
   27.1800003100    24.0000000000     1.8600000100
   27.8500003800    20.8199996900     3.4299998300
   27.2000007600    21.8600006100     2.5099997500
   27.1257114400    22.4334545100     7.2011165600
   28.3752231600    23.2252426100     6.7862024300
   26.3288421600    20.9474353800     8.6084718700
   25.4393596600    22.2004718800     8.4965667700
   23.8805561100    23.4832096100     7.5269355800
   23.8797283200    23.5559253700     9.0626401900
   24.6975154900    24.5581016500     5.7128052700
   23.8787269600    25.5960826900     6.4872217200
   26.3296318100    24.1438827500     4.0091862700
   26.7121334100    23.8318996400     5.4556531900
   26.8446502700    18.9086513500     7.7752533000
   25.5737266500    18.7431812300     8.6151046800
   27.0335941300    17.7068557700     5.7591857900
   28.3821296700    17.8748359700     6.4604911800
   28.0945129400    21.3405265800     5.5263447800
   28.0655441300    19.8047866800     5.4628295900
   19.9675788900    21.7481956500     5.7590384500
   19.4686470000    22.9656486500     6.5513896900
   21.0823364300    23.7148819000     5.3106541600
   22.3914222700    24.5060424800     5.2617507000
   22.3997783700    22.0454063400     8.4226617800
   21.0685520200    21.9398574800     7.6740741700
   19.6917133300    20.5851936300     3.9884243000
   18.4100227400    20.4585533100     4.8272619200
   19.8687896700    18.9953384400     5.7535028500
   20.6502304100    17.6622390700     5.7239646900
   21.5881824500    19.8962421400     8.4092149700
   21.0716743500    18.6690254200     7.6386776000
   23.9708805100    16.8445739700     7.1115326900
   23.9209079700    15.3674106600     6.6979432100
   25.3332710300    16.3715496100     5.4205298400
   25.8433132200    16.6475524900     4.0021281200
   21.2148056000    15.6954040500     4.9251036600
   22.4547500600    16.4713668800     5.3900141700
   23.2199897800    18.2644729600     8.5094461400
   24.0753021200    17.2648353600     9.2980604200
   36.5132484400    27.6585426300     6.7591528900
   34.9771232600    27.6238269800     6.7774314900
   38.3913765000    28.8182144200     6.9967508300
   38.3622131300    27.9451656300     5.7287578600
   33.0751037600    28.8573303200     7.0683212300
   33.8656272900    29.3330287900     5.8385715500
   35.7200851400    24.0233631100     6.8104271900
   35.7543640100    25.5061740900     6.4175200500
   31.7199993100    25.1000003800     0.2200000000
   31.9899978600    24.4300003100     1.5399999600
   34.9099998500    23.2800006900     1.3800000000
   36.4500007600    23.2299995400     1.3199999300
   32.9200019800    22.6399993900     2.2699999800
   33.3699989300    23.7899990100     3.1799998300
   32.0200004600    28.6899986300     1.6100000100
   33.3899993900    28.8400001500     1.0099999900
   31.6100006100    27.1399993900     3.3800001100
   31.3700008400    26.5100002300     2.0000000000
   40.0799980200    25.6500015300     1.5299999700
   41.0499992400    24.5900001500     1.0499999500
   38.7700004600    23.8500003800     1.6799999500
   38.0400009200    23.6700019800     3.0199999800
   39.9200019800    27.9399986300     1.9900000100
   39.8199996900    27.0699996900     3.2699999800
   39.0000000000    29.2300014500     0.2500000000
   38.9799995400    30.0000000000     1.5700000500
   36.6100006100    31.7600021400     1.5700000500
   36.1500015300    33.1699981700     1.2400000100
   34.4399986300    31.6700000800     1.9800000200
   33.2500000000    30.6900005300     1.9700000300
   38.4699974100    32.0200004600     2.3899998700
   37.7099990800    31.0400009200     3.2899999600
   18.6478157000    17.4138698600     6.6603078800
   17.8255062100    16.9432106000     7.8628964400
   16.2556667300    19.8263130200     5.1028127700
   16.3621177700    20.6526718100     3.7984252000
   15.1792392700    17.8192787200     5.5303978900
   16.4753456100    17.8971061700     6.3449473400
   20.4025230400    13.8013477300     4.1118283300
   19.5291881600    14.2003068900     5.3243064900
   17.1134376500    14.2851400400     5.5723328600
   17.9241924300    15.3099594100     6.3614268300
   14.6599998500    14.0000000000     1.3500000200
   13.8699998900    15.3199996900     1.2599999900
   39.3776550300    30.1861667600     8.4877309800
   38.8138351400    28.9292736100     9.1636228600
   27.0799999200    32.6800003100     2.4400000600
   28.4099998500    33.3400001500     2.0299999700
   37.3699989300    17.5900001500     1.8000000700
   37.4300003100    16.7399997700     3.0799999200
   22.1100006100    14.8199996900     0.1499999900
   23.2100009900    14.5599994700     1.1800000700
   32.8099975600    32.8600006100     2.4900000100
   32.9399986300    34.2999992400     1.9700000300
   43.1160430900    28.8004837000     8.4117956200
   43.8183937100    30.1726036100     8.3747062700
   44.2822723400    32.2644767800     7.7124834100
   44.2209396400    32.2285080000     9.2413406400
   18.2799987800    21.7700004600    -0.0899982500
   18.5200004600    22.8299999200     0.9799999600
   40.4000015300    21.3400001500     1.6400001000
   39.0300025900    21.8499984700     2.0999999000
   41.5853347800    33.8453331000     7.4938592900
   42.2537269600    32.7825508100     8.3688440300
   24.6292285900    27.8009605400     6.6526460600
   23.0922718000    27.7471332600     6.6299524300
   26.5767402600    28.0879116100     5.7220630600
   26.4959621400    28.9669876100     6.9726610200
   21.1748390200    28.8165454900     6.9056854200
   21.0806922900    27.9082107500     5.6757850600
   27.9183883700    27.0383834800     4.1896095300
   27.1175308200    26.0124778700     5.0138921700
   19.7719135300    26.7912654900     4.0565547900
   20.5924110400    25.8429107700     4.9337191600
   20.1599998500    24.0799999200     1.5499999500
   19.2900009200    25.3099994700     1.6500001000
   33.4857788100    20.0381584200     8.4408149700
   32.9823684700    18.7671814000     9.1285257300
   35.0506134000    18.3035030400     8.5485305800
   35.8358421300    17.2396984100     7.7703471200
   43.3300018300    27.6900005300     1.9700000300
   41.9799995400    27.0699996900     2.4099998500
   28.3999996200    25.2500000000     0.1499999900
   29.4600009900    24.7999992400     1.1399999900
   38.5478248600    18.9470119500     7.5152072900
   37.3438339200    18.7227096600     8.4510641100
   29.5400009200    27.4099998500     2.6199998900
   28.4899997700    26.4400005300     2.0799999200
   23.8000011400    32.4599990800     0.5400000200
   23.0100021400    31.5100002300     1.4300000700
   44.6999969500    32.1900024400     2.3299999200
   45.4500007600    31.1800003100     3.2100000400
   25.3600006100    31.3500003800     1.8899999900
   26.6800003100    30.5699996900     2.0299999700
   35.7027359000    23.6062164300     9.1073417700
   36.4804229700    22.5771026600     8.2899694400
   29.8705253600    17.0293045000     7.7591295200
   30.6197528800    17.5437660200     6.5239534400
   32.5458488500    18.6787605300     6.9209232300
   32.5908050500    17.8440990400     5.6354737300
   30.1882400500    20.6794662500     4.9719290700
   31.4683494600    19.9144706700     5.3489632600
   29.1087722800    14.2591486000     5.5644617100
   29.8491191900    15.3638448700     6.3370585400
   27.0867729200    14.9649334000     4.8035106700
   27.0972156500    13.5185613600     5.3185319900
   25.1000003800    15.2799997300     1.7599999900
   25.8299999200    13.9400005300     1.6799999500
   26.8305797600    29.0918159500     9.1846618700
   27.3831939700    30.3271083800     8.4577417400
   39.3100013700    33.9799995400     3.1400001000
   40.0099983200    33.5299987800     1.8400000300
   28.1825809500    32.4961051900     8.4366474200
   26.8393154100    32.3751220700     7.7065820700
   34.1399993900    14.3499994300     0.3400000300
   33.7200012200    15.5100002300     1.2500000000
   44.3699989300    34.2999992400     1.8000000700
   43.0200004600    33.5800018300     1.9499999300
   32.6394043000    29.1016178100     9.2193241100
   31.2838020300    29.0006923700     8.5136013000
   34.1100006100    17.6100006100     1.9200000800
   35.3400001500    16.7500000000     2.2300000200
   29.0599994700    20.8500003800     1.5299999700
   29.9799995400    19.7299995400     1.0499999500
   31.8300018300    20.9699993100     3.3099999400
   31.3400001500    21.0400009200     1.8600000100
   29.7579212200    33.8739662200     7.4560556400
   30.5680084200    32.8747787500     8.3006706200
   33.1932029700    33.5535392800     5.9483327900
   33.1333389300    32.6451225300     7.1896033300
   32.1162147500    31.1523475600     8.4581079500
   32.6700286900    32.3329467800     9.2655658700
   34.1562500000    31.5497989700     5.5435037600
   34.0997467000    30.9774189000     4.1188497500
   39.7198104900    21.8948841100     5.6690998100
   38.9083595300    22.3431987800     6.8981647500
   38.0564270000    20.9178314200     8.3601055100
   38.5490837100    22.0900440200     9.2163858400
   37.1596107500    24.3780689200     5.0893888500
   38.5308837900    23.7039184600     5.1814813600
   35.7099990800    20.5500011400    -0.9000015300
   35.7099990800    21.4599990800     0.3200006500
   34.4199981700    19.6499996200     0.8500000200
   33.1500015300    19.8400001500     1.6900000600
   38.4699974100    19.8099994700     1.4800000200
   37.0999984700    19.6599998500     0.7999999500
   30.0399990100    31.5200004600     0.6800000700
   30.9300003100    30.2800006900     0.5600000000
   28.4799995400    29.8499984700     0.9099999700
   27.9800014500    28.6999988600     1.7799999700
   29.8900013000    34.2200012200     0.7699999800
   30.8199996900    33.4500007600     1.6900000600
   45.5463256800    32.1918182400     5.8686490100
   44.8859329200    33.5810699500     5.9046430600
   31.4182853700    14.2857217800     5.2884936300
   32.1761589100    13.9063148500     3.9991011600
   22.0604515100    30.0517692600     5.2674160000
   23.2697410600    30.8925342600     4.8298173000
   42.2869415300    26.4618568400     5.8376264600
   41.5441093400    25.3702335400     6.6124181700
   38.7901420600    25.8586406700     4.7894363400
   40.0240287800    26.5424194300     5.4045648600
   41.5793991100    27.2849273700     7.7426838900
   40.8568191500    28.4028167700     8.5006303800
   37.6697235100    32.2050247200     5.8154945400
   38.4382095300    32.6163635300     7.0818691300
   38.8581390400    32.1757202100     9.3605070100
   40.0715446500    32.3899192800     8.4533615100
   37.3685722400    30.0225257900     5.3682618100
   36.1210594200    30.8060913100     4.9437880500
   41.1199989300    30.0900001500     0.7300000200
   42.6499977100    30.0200004600     0.6499999800
   44.9900016800    28.5799999200     1.0800000400
   44.4700012200    29.8999996200     1.6100000100
   41.6900024400    32.2900009200     0.8700000000
   41.7399978600    33.6299972500     0.1499999900
   25.1953086900    33.4411201500     6.6447119700
   25.6042652100    32.2292175300     5.7963728900
   15.0285415600    13.5654106100     5.3602099400
   15.6117591900    13.7942447700     3.9572553600
   25.4018478400    30.9705543500     4.0187897700
   25.3659915900    30.0923080400     5.2862234100
   35.0039444000    16.4286232000     5.7971811300
   35.7443580600    15.3681106600     6.6280069400
   14.7414608000    15.7384376500     4.7622189500
   13.5020160700    16.4815483100     5.2905921900
   33.8519325300    16.7256374400     3.9399485600
   33.1073532100    15.7782888400     4.8858456600
   31.6193962100    22.0418186200     5.9395308500
   32.4302711500    23.3394966100     5.9025025400
   34.2233200100    24.4124183700     5.2308540300
   32.9334907500    25.1844959300     4.8850860600
   34.1784935000    22.1833686800     8.5112505000
   32.8129425000    22.1498985300     7.8087668400
   29.0628013600    26.7159156800     5.9804415700
   29.8218727100    25.6793499000     6.8182282400
   31.3071270000    26.6510543800     5.5114498100
   32.6607666000    27.3654441800     5.4408893600
   28.9378471400    28.6043014500     8.5990219100
   29.8235092200    27.5732994100     7.8921947500
   47.6000022900    33.9899978600    -1.2300033600
   48.2099990800    34.4000015300     0.1000022900
   35.6375351000    13.7098302800     8.1916818600
   34.8641510000    13.2620506300     6.9470477100
   18.7424278300    17.3790607500     9.9058170300
   18.0103073100    16.0296134900     9.8837986000
   29.1932067900    17.5157012900     9.8936834300
   30.7268314400    17.4898605300     9.8162326800
   24.5583801300    27.7169513700     9.9423379900
   23.8357086200    27.2312545800     8.6713419000
   30.5195617700    23.6094398500     7.1158409100
   29.7557601900    24.0672950700     8.3759975400
   18.0006866500    23.6953887900     8.0615882900
   17.2263298000    23.3404445600     6.7770586000
   24.7861557000    13.3161964400     6.9411516200
   23.2481842000    13.2587328000     6.9905757900
   47.5471344000    35.0235137900    10.2261438400
   48.2278976400    33.6424217200    10.2174568200
   45.9641342200    33.3008270300    10.3069915800
   45.4985733000    32.0628242500    11.0798282600
   22.1493072500    29.9027862500    11.4235677700
   22.1419353500    30.5775165600    12.8049736000
   25.4531173700    31.4313888500    11.6877508200
   24.1697788200    30.6778717000    12.0583667800
   26.4293441800    32.4901123000     9.9107980700
   26.5709800700    33.4133491500    11.1207160900
   31.1620044700    14.3074092900    11.4564657200
   32.4322929400    13.4532365800    11.5174465200
   32.9066543600    15.5785036100    11.9670391100
   33.4202919000    16.7039356200    12.8724517800
   35.0004425000    16.2891235400    11.2005891800
   35.8378601100    16.7627563500     9.9991359700
   13.6835002900    16.3327674900    11.5209732100
   15.0110578500    17.1042709400    11.4185380900
   16.1426830300    13.8009147600    12.6269922300
   15.3944768900    14.9043846100    11.8471565200
   36.5689430200    17.7809448200    15.1396465300
   35.6878700300    18.8308429700    15.8276157400
   31.7008476300    14.8991022100    15.5965528500
   31.0529480000    16.0434322400    16.3791580200
   32.8577537500    16.7063198100    15.0996027000
   34.1861572300    17.4596576700    14.8788843200
   23.7094116200    30.2416229200    16.9551849400
   23.5836830100    28.7964820900    16.4851226800
   25.1437797500    29.9039630900    15.1777658500
   25.6651401500    30.2540588400    13.7757053400
   21.2373008700    29.3719139100    14.3987951300
   22.4298763300    30.0968856800    15.0188016900
   25.0089817000    21.2731399500    16.1987457300
   26.3986949900    21.2538871800    15.5489406600
   23.7936286900    17.3280811300    16.4440937000
   23.6655426000    18.8140983600    16.0898017900
   20.6934928900    18.3954296100     9.7614955900
   20.6923446700    17.5158195500    11.0229492200
   23.2363586400    16.3910846700    11.1661548600
   24.7773056000    16.4469776200    11.1885852800
   21.2077903700    15.5551099800    11.9470205300
   21.6042289700    16.7129955300    12.8752594000
   19.9619064300    21.7209205600    11.1598978000
   20.7195358300    22.1831417100     9.9042453800
   19.6661453200    20.0909442900    12.8534851100
   19.6167411800    19.5136222800    11.4331932100
   28.1402053800    19.0682334900    11.2042093300
   27.3631629900    18.6693992600     9.9329767200
   26.8877029400    17.2073020900    11.5163059200
   26.2170524600    17.0600128200    12.8822317100
   28.2045574200    21.2533798200    11.8043823200
   28.1566810600    20.4088993100    13.0934801100
   27.1582126600    22.3973941800    10.1242923700
   27.0411796600    23.2889671300    11.3714485200
   24.6702079800    24.5654411300    10.9989967300
   23.8819980600    25.5587406200    10.1275959000
   22.4952220900    24.5223541300    11.3766803700
   21.1802635200    23.7435226400    11.4991512300
   26.4707374600    25.3612880700    12.0738887800
   25.8086357100    24.3380260500    13.0054798100
   28.3180389400    13.0335540800    14.8031702000
   28.2327919000    13.9637718200    13.5681486100
   39.1708374000    31.3665103900    15.0857629800
   40.4229393000    31.4953918500    15.9492063500
   20.3756885500    27.4225463900    13.5583629600
   19.6853218100    27.9146213500    14.8523674000
   41.0339279200    27.9597244300    15.2435388600
   41.7927780200    28.9679546400    16.0989933000
   38.3752212500    27.7506542200    11.0874595600
   37.6458320600    29.1079368600    11.0467443500
   38.8294448900    25.7960987100    12.0805692700
   40.1306686400    26.4586525000    11.6028575900
   37.5492439300    31.2720851900    11.6077375400
   37.5342140200    30.3951473200    12.8768119800
   21.1522407500    28.7668018300     9.7663440700
   22.4132556900    28.0197410600    10.2272987400
   20.7665348100    25.9007759100    11.9660654100
   20.7196235700    27.3553676600    11.4697084400
   29.7446212800    13.9810323700     9.6800508500
   29.8488693200    15.4739046100    10.0440921800
   28.3845672600    14.3738594100    11.4098014800
   27.1428566000    15.0781002000    11.9817504900
   34.7368049600    20.9851570100    16.1031589500
   35.4316253700    20.5298309300    17.3725128200
   38.4669036900    21.0464267700    15.2683544200
   37.0565681500    21.2260131800    15.8536377000
   32.5015106200    22.3992195100    15.6430301700
   32.8116340600    20.9743461600    15.2380065900
   31.7088012700    19.8332061800    13.7539176900
   32.4411315900    18.7685051000    14.5900058700
   32.5733070400    17.6093902600    11.0532198000
   31.7951698300    18.9395484900    11.1316661800
   31.4768600500    21.0795574200    11.6918582900
   30.2573471100    20.3007583600    12.1842460600
   15.3758068100    18.6293411300     9.7767553300
   16.6169948600    17.8192405700    10.1815547900
   17.6311416600    20.3428669000    12.0484361600
   16.3714866600    19.6121101400    11.5578069700
   35.7305069000    25.5069332100    10.2445335400
   34.9261436500    24.4695262900    11.0276031500
   32.9620895400    25.2542877200    11.9475383800
   33.7494163500    24.2413044000    12.7876081500
   37.1816482500    24.3772106200    11.4987869300
   38.5148811300    23.6241302500    11.5759391800
   32.6730880700    32.1308860800    16.5555400800
   32.5507278400    31.2135543800    15.3522357900
   30.2900352500    33.9265480000    14.2759714100
   31.5000553100    33.1713409400    14.8322315200
   29.0010223400    27.7506809200    15.3241777400
   29.8316745800    28.8437194800    15.9838533400
   26.8925628700    28.5163288100    14.6778535800
   26.8626041400    27.1086463900    15.2768135100
   25.6246471400    29.3406829800    11.1310577400
   26.3781909900    28.0009441400    11.1137332900
   27.3392829900    27.1601562500    13.0183773000
   28.1580905900    26.8228340100    11.7518348700
   34.2639884900    28.0004291500    10.2794742600
   33.8554763800    29.2152481100    11.1294832200
   32.5939827000    27.3985672000    11.5431823700
   31.2165641800    26.7420883200    11.7251443900
   34.2145462000    31.3233261100    11.5748786900
   35.4408187900    30.5177879300    12.0409183500
   17.3027439100    14.2750558900    10.9107360800
   18.0397510500    13.8465633400     9.6371784200
   20.0326499900    13.8189201400    12.8011493700
   19.5506992300    14.1785411800    11.3871526700
   21.1008739500    26.4994392400    15.3591499300
   20.6167964900    25.1652946500    15.9267511400
   22.2477035500    24.5930118600    14.9278173400
   22.3150138900    24.0531463600    13.4937114700
   27.6943302200    15.0620355600    15.3488311800
   26.2643585200    15.3155756000    15.8166551600
   25.2841529800    17.8570728300    14.8002376600
   26.6043434100    17.0925960500    14.9742260000
   35.8674507100    35.0472221400    10.2506790200
   35.8837165800    34.1694145200     8.9990577700
   34.4788742100    33.2002830500    10.3826084100
   33.1518592800    33.3550071700    11.1301899000
   38.5675964400    33.4234390300    11.2578239400
   37.2399025000    33.2486419700    10.5145063400
   17.9888725300    24.5772457100    10.1230955100
   18.8295669600    23.2840957600    10.1252021800
   40.2790832500    22.8999099700    10.3438587200
   39.7747955300    21.7374839800    11.2146797200
   41.6277618400    26.7968654600     9.9278459500
   42.4121627800    26.4137439700    11.1920547500
   33.9035949700    25.2415313700    15.4973735800
   33.1915245100    26.5902977000    15.6042633100
   31.4449405700    27.7841110200    14.9762954700
   32.2208557100    27.3762607600    13.7098121600
   34.0601615900    23.1507186900    14.7591114000
   35.3204803500    23.9860115100    14.4496727000
   30.4555034600    19.4405574800    15.5937290200
   29.6144409200    18.4018535600    16.3398189500
   26.9864654500    19.3240833300    14.5692005200
   28.2373504600    19.9458084100    15.1966705300
   25.6340866100    25.4171962700    15.7200202900
   24.9485702500    26.5185432400    16.5396041900
   25.5524101300    23.3101005600    15.1348896000
   24.3255024000    24.0049133300    14.5394516000
   28.9966430700    23.5572834000    10.4100503900
   30.5270214100    23.5086746200    10.3442783400
   32.3751030000    22.2424545300     9.9678106300
   32.4472389200    23.1779079400    11.1812953900
   29.7109565700    25.7168273900    10.6350078600
   29.7246761300    27.1772766100    10.1508054700
   37.2552681000    26.5106163000    16.4818306000
   37.6608429000    25.3660488100    15.5529546700
   38.9631767300    27.1783676100    15.1128501900
   39.4201126100    27.3509407000    13.6566944100
   37.4107666000    24.1174106600    13.6775884600
   37.3696174600    23.2292633100    14.9339485200
   35.1398391700    29.7893619500    15.5544490800
   35.9147148100    28.8120613100    16.4471283000
   38.6255836500    29.2915267900    14.5051307700
   37.3735008200    29.9878578200    15.0565614700
   33.9255676300    30.2555751800    13.7234058400
   33.1734962500    29.2482261700    14.6094570200
   19.6875305200    14.8560504900    15.4234123200
   20.4061241100    16.2030201000    15.4722776400
   22.3138961800    17.4832115200    14.8531875600
   20.9915370900    18.1456031800    14.4611797300
   36.4489173900    27.5751113900    10.0069665900
   35.6846847500    27.1073131600     8.7578029600
   35.6616210900    27.0976734200    18.1414184600
   35.0477447500    26.7524490400    16.7925682100
   29.3732433300    16.6244087200    17.8788986200
   28.6370582600    16.3612194100    16.5741214800
   22.6529388400    26.6432914700    16.7036972000
   23.3144683800    26.9050197600    18.0473880800
   35.9599990800     0.9099999700     0.6100000100
   36.6199989300    -0.4799985900     0.5799999800
   57.9599990800    40.2600021400     0.6599999700
   57.4100036600    39.0699996900     1.4600000400
   57.8100051900    36.8600006100     1.8899999900
   57.6700058000    37.5299987800     3.2599999900
   61.0900039700    38.2099990800     1.9499999300
   59.7500000000    37.6200027500     2.4200000800
   62.3899993900    39.4099998500     0.4500000200
   62.2100029000    40.2700004600     1.6799999500
   31.2899990100     0.7699999800     1.8799998800
   32.5500030500    -0.1000022900     1.9200000800
   33.0600013700     1.9900000100     2.3700001200
   33.4799995400     3.2500000000     3.1500001000
   35.1300010700     2.7399997700     1.5499999500
   35.7799987800     3.1600000900     0.2500000000
   37.5900001500     2.9400000600     1.8700001200
   39.0300025900     3.4900000100     1.8600000100
   39.7000007600     0.3100000000     3.4299998300
   39.0499992400     1.3500000200     2.5099997500
   38.9752235400     1.9237791300     7.2016553900
   40.2247543300     2.7155220500     6.7865872400
   38.1767082200     0.4373443100     8.6088390400
   37.2887496900     1.6912641500     8.4967603700
   35.7302055400     2.9733493300     7.5269861200
   35.7292404200     3.0460648500     9.0627107600
   36.5473556500     4.0481071500     5.7127471000
   35.7286109900     5.0860576600     6.4872350700
   38.1795959500     3.6339592900     4.0091233300
   38.5618896500     3.3222148400     5.4557266200
   62.3759918200    39.4271774300     7.7756590800
   61.1051101700    39.2622337300     8.6156950000
   62.5651969900    38.2256050100     5.7591247600
   63.9137306200    38.3931808500     6.4604539900
   39.9422226000     0.8305739200     5.5270218800
   39.9114952100    -0.7050991100     5.4631238000
   31.8160209700     1.2383593300     5.7583260500
   31.3183765400     2.4559013800     6.5511856100
   32.9321365400     3.2046594600     5.3104281400
   34.2412338300     3.9958798900     5.2618718100
   34.2490081800     1.5353820300     8.4226112400
   32.9179077100     1.4302002200     7.6737494500
   55.2260627700    41.1048584000     3.9876909300
   53.9438819900    40.9790344200     4.8262329100
   55.4000282300    39.5152320900     5.7532110200
   56.1804618800    38.1815757800     5.7240004500
   57.1210403400    40.4153022800     8.4089613000
   56.6023025500    39.1887779200     7.6386976200
   59.5013771100    37.3624687200     7.1122121800
   59.4510078400    35.8853569000     6.6982622100
   60.8640670800    36.8897285500     5.4207582500
   61.3739776600    37.1661300700     4.0024423600
   56.7452812200    36.2135086100     4.9247303000
   57.9847755400    36.9896774300     5.3903050400
   58.7508239700    38.7829742400     8.5100879700
   59.6057891800    37.7826767000     9.2982502000
   48.3627777100     7.1484713600     6.7594723700
   46.8266487100     7.1136016800     6.7776322400
   50.2403640700     8.3080024700     6.9969754200
   50.2107315100     7.4348397300     5.7290029500
   44.9249572800     8.3470125200     7.0683054900
   45.7153701800     8.8222713500     5.8382358600
   47.5685272200     3.5134503800     6.8108105700
   47.6032218900     4.9963016500     6.4179477700
   43.5699996900     4.5900001500     0.2200000000
   43.8399963400     3.9199998400     1.5399999600
   46.7600021400     2.7699999800     1.3800000000
   48.2999992400     2.7200002700     1.3199999300
   44.7700042700     2.1300001100     2.2699999800
   45.2199974100     3.2800002100     3.1799998300
   43.8700027500     8.1800003100     1.6100000100
   45.2400016800     8.3299999200     1.0099999900
   43.4600029000     6.6300001100     3.3800001100
   43.2200012200     6.0000000000     2.0000000000
    4.5500001900     5.1399998700     1.5299999700
    5.5199999800     4.0799999200     1.0499999500
    3.2400000100     3.3399999100     1.6799999500
    2.5099997500     3.1600000900     3.0199999800
    4.3900003400     7.4299998300     1.9900000100
    4.2899999600     6.5600004200     3.2699999800
   50.8499984700     8.7199993100     0.2500000000
   50.8300018300     9.4899997700     1.5700000500
   48.4600029000    11.2500000000     1.5700000500
   48.0000000000    12.6599998500     1.2400000100
   46.2900009200    11.1600008000     1.9800000200
   45.1000022900    10.1800003100     1.9700000300
   50.3199996900    11.5100002300     2.3899998700
   49.5599975600    10.5299997300     3.2899999600
   54.1788291900    37.9322128300     6.6603021600
   53.3566894500    37.4610710100     7.8628425600
   51.7891351600    40.3460966600     5.1028151500
   51.8971769200    41.1721794700     3.7983443700
   50.7125282300    38.3385467500     5.5305476200
   52.0084686300    38.4164009100     6.3450155300
   55.9325828600    34.3160057100     4.1117091200
   55.0599098200    34.7169570900     5.3239164400
   52.6440239000    34.8013153100     5.5728559500
   53.4544677700    35.8265380900     6.3618893600
   50.1900024400    34.5200004600     1.3500000200
   49.4000015300    35.8400001500     1.2599999900
   51.2262764000     9.6755209000     8.4873161300
   50.6625709500     8.4187603000     9.1636047400
   38.9300003100    12.1700000800     2.4400000600
   40.2600021400    12.8299999200     2.0299999700
   25.5299987800    38.1100006100     1.8000000700
   25.5900001500    37.2600021400     3.0799999200
   57.6399993900    35.3400001500     0.1499999900
   58.7400016800    35.0799980200     1.1800000700
   44.6599998500    12.3500003800     2.4900000100
   44.7900009200    13.7899990100     1.9700000300
    7.5869064300     8.2888565100     8.4117584200
    8.2890472400     9.6611175500     8.3749389600
    8.7515106200    11.7514905900     7.7126169200
    8.6909303700    11.7160396600     9.2416372300
   30.1300010700     1.2599999900    -0.0899982500
   30.3699989300     2.3199999300     0.9799999600
    4.8699998900     0.8299999800     1.6400001000
    3.5000000000     1.3400000300     2.0999999000
   53.4310531600    13.3312807100     7.4937815700
   54.1010284400    12.2694788000     8.3690633800
   36.4792366000     7.2908186900     6.6526579900
   34.9422493000     7.2370071400     6.6300611500
   38.4268875100     7.5774788900     5.7220578200
   38.3459892300     8.4563789400     6.9727711700
   33.0245628400     8.3061037100     6.9058809300
   32.9305496200     7.3978519400     5.6759223900
   39.7684707600     6.5283012400     4.1895265600
   38.9675102200     5.5024476100     5.0137910800
   31.6218338000     6.2812175800     4.0565652800
   32.4422226000     5.3328185100     4.9337811500
   32.0099983200     3.5699999300     1.5499999500
   31.1400013000     4.7999997100     1.6500001000
   69.0196380600    40.5563278200     8.4409198800
   68.5148544300    39.2856369000     9.1282692000
   23.2085876500    38.8220443700     8.5486984300
   23.9940834000    37.7585640000     7.7703638100
    7.7999997100     7.1799998300     1.9700000300
    6.4499998100     6.5600004200     2.4099998500
   40.2500000000     4.7400002500     0.1499999900
   41.3100013700     4.2899999600     1.1399999900
   26.7069664000    39.4658203100     7.5152473400
   25.5028648400    39.2417755100     8.4510335900
   41.3899993900     6.9000001000     2.6199998900
   40.3400001500     5.9299998300     2.0799999200
   35.6500015300    11.9500007600     0.5400000200
   34.8600006100    11.0000000000     1.4300000700
    9.1700000800    11.6800003100     2.3299999200
    9.9200000800    10.6700000800     3.2100000400
   37.2099990800    10.8400001500     1.8899999900
   38.5299987800    10.0600004200     2.0299999700
   47.5511856100     3.0962748500     9.1071739200
   48.3286476100     2.0669302900     8.2898511900
   65.4019012500    37.5471077000     7.7594986000
   66.1512680100    38.0615768400     6.5243873600
   68.0782699600    39.1967010500     6.9207806600
   68.1233520500    38.3618125900     5.6355447800
   65.7235815000    41.1990565800     4.9712686500
   67.0029127000    40.4331480600     5.3484001200
   64.6395111100    34.7761993400     5.5639834400
   65.3801498400    35.8805885300     6.3366718300
   62.6165199300    35.4804992700     4.8030700700
   62.6266021700    34.0342063900     5.3183751100
   60.6300010700    35.7999992400     1.7599999900
   61.3600006100    34.4599990800     1.6799999500
   38.6805381800     8.5806236300     9.1846981000
   39.2330398600     9.8158035300     8.4575796100
   51.1600036600    13.4700002700     3.1400001000
   51.8600006100    13.0200004600     1.8400000300
   40.0316200300    11.9834890400     8.4364042300
   38.6878433200    11.8626012800     7.7069606800
   22.2999992400    34.8699989300     0.3400000300
   21.8799991600    36.0299987800     1.2500000000
    8.8400001500    13.7899990100     1.8000000700
    7.4900002500    13.0700006500     1.9499999300
   44.4893951400     8.5912723500     9.2192945500
   43.1337738000     8.4901819200     8.5135650600
   22.2700004600    38.1300010700     1.9200000800
   23.5000000000    37.2700004600     2.2300000200
   64.5900022400    41.3699995600     1.5299999700
   65.5100042300    40.2499996700     1.0499999500
   43.6800003100     0.4600000100     3.3099999400
   43.1899986300     0.5299999700     1.8600000100
   41.6045990000    13.3593101500     7.4554615000
   42.4168739300    12.3623619100     8.3008613600
   45.0381469700    13.0387115500     5.9478240000
   44.9804458600    12.1315288500     7.1900005300
   43.9652099600    10.6409931200     8.4587144900
   44.5192375200    11.8215761200     9.2660503400
   46.0046730000    11.0375642800     5.5430054700
   45.9496269200    10.4662056000     4.1179223100
    4.1906690600     1.3849828200     5.6687951100
    3.3792071300     1.8330842300     6.8979616200
    2.5278589700     0.4074591700     8.3602085100
    3.0203928900     1.5798019200     9.2164039600
    1.6308376800     3.8682637200     5.0892777400
    3.0019674300     3.1938104600     5.1809978500
    0.1838016500     0.0400000000    -0.9000015300
    0.1838016500     0.9499999900     0.3200006500
   69.9500045800    40.1700019800     0.8500000200
   68.6800079300    40.3599968000     1.6900000600
   26.6300010700    40.3300018300     1.4800000200
   25.2600002300    40.1800003100     0.7999999500
   41.8899993900    11.0099992800     0.6800000700
   42.7799987800     9.7700004600     0.5600000000
   40.3300018300     9.3400001500     0.9099999700
   39.8300018300     8.1900005300     1.7799999700
   41.7399978600    13.7100009900     0.7699999800
   42.6700019800    12.9400005300     1.6900000600
   10.0144348100    11.6785984000     5.8681588200
    9.3520526900    13.0669202800     5.9050579100
   19.5740966800    34.8025779700     5.2878665900
   20.3303909300    34.4205322300     3.9986345800
   33.9101715100     9.5403957400     5.2669482200
   35.1193695100    10.3811168700     4.8289856900
    6.7573618900     5.9516425100     5.8375687600
    6.0145864500     4.8599729500     6.6124267600
    3.2611205600     5.3481731400     4.7893266700
    4.4950275400     6.0319142300     5.4045410200
    6.0505204200     6.7740721700     7.7427158400
    5.3283958400     7.8921599400     8.5007991800
   49.5166816700    11.6915664700     5.8164458300
   50.2849235500    12.1032772100     7.0830416700
   50.7062110900    11.6634664500     9.3600988400
   51.9196319600    11.8777904500     8.4528226900
   49.2175331100     9.5112266500     5.3676948500
   47.9700126600    10.2946147900     4.9427256600
    5.5900001500     9.5799999200     0.7300000200
    7.1199998900     9.5100002300     0.6499999800
    9.4600000400     8.0699996900     1.0800000400
    8.9399995800     9.3900003400     1.6100000100
   53.5400009200    11.7799997300     0.8700000000
   53.5900039700    13.1200008400     0.1499999900
   37.0420608500    12.9261894200     6.6461343800
   37.4519195600    11.7149591400     5.7972188000
   50.5595741300    34.0797271700     5.3595819500
   51.1423835800    34.3075676000     3.9565489300
   37.2515373200    10.4590559000     4.0180215800
   37.2157249500     9.5805435200     5.2853770300
   23.1625385300    36.9467163100     5.7973232300
   23.9018821700    35.8858146700     6.6282219900
   50.2751731900    36.2551651000     4.7625393900
   49.0368843100    36.9994850200     5.2915234600
   22.0098609900    37.2435989400     3.9402768600
   21.2648963900    36.2954177900     4.8850069000
   43.4679260300     1.5317255300     5.9389333700
   44.2793617200     2.8291013200     5.9020423900
   46.0723495500     3.9022567300     5.2310395200
   44.7826805100     4.6743769600     4.8848967600
   46.0270843500     1.6727794400     8.5113391900
   44.6616897600     1.6395920500     7.8085851700
   40.9127807600     6.2059297600     5.9804229700
   41.6718139600     5.1693816200     6.8182606700
   43.1569061300     6.1410408000     5.5113935500
   44.5106468200     6.8552312900     5.4408750500
   40.7878341700     8.0939064000     8.5991373100
   41.6736679100     7.0631322900     7.8922228800
   12.0699996900    13.4800005000    -1.2300033600
   12.6800003100    13.8900003400     0.1000022900
   23.7912025500    34.2256813000     8.1917018900
   23.0182476000    33.7783126800     6.9468188300
   54.2733039900    37.8968200700     9.9061164900
   53.5413703900    36.5471420300     9.8837175400
   64.7240829500    38.0332794200     9.8944931000
   66.2576599100    38.0074234000     9.8169164700
   36.4083366400     7.2067971200     9.9423656500
   35.6856842000     6.7211799600     8.6713228200
   42.3691711400     3.0994055300     7.1157474500
   41.6056289700     3.5574646000     8.3760185200
   29.8508377100     3.1857619300     8.0616502800
   29.0761604300     2.8310034300     6.7772746100
   60.3157348600    33.8320312500     6.9404525800
   58.7779007000    33.7747993500     6.9895005200
   12.0145711900    14.5100536300    10.2270784400
   12.6965427400    13.1295185100    10.2171974200
   10.4329090100    12.7887496900    10.3071022000
    9.9678735700    11.5506286600    11.0799779900
   33.9990730300     9.3917961100    11.4239425700
   33.9916305500    10.0665750500    12.8054218300
   37.3021163900    10.9189786900    11.6872606300
   36.0190696700    10.1658382400    12.0592804000
   38.2769775400    11.9766635900     9.9094877200
   38.4170379600    12.8989067100    11.1204586000
   19.3185310400    34.8252792400    11.4570465100
   20.5877590200    33.9698677100    11.5180721300
   21.0648002600    36.0974121100    11.9670543700
   21.5778007500    37.2234382600    12.8720274000
   23.1591262800    36.8063659700    11.1997499500
   23.9963645900    37.2793808000     9.9980821600
   49.2168235800    36.8495674100    11.5200443300
   50.5436897300    37.6224098200    11.4190177900
   51.6722030600    34.3162040700    12.6266965900
   50.9252090500    35.4206810000    11.8471632000
   38.8609352100    10.7606849700    15.3119897800
   40.2324104300    10.8822679500    15.9742593800
   40.0815773000    14.2133941700    14.6958656300
   40.0736389200    12.6816091500    14.6607589700
   35.5597190900     9.7315111200    16.9553031900
   35.4336128200     8.2863616900    16.4853210400
   36.9936447100     9.3936643600    15.1781997700
   37.5149917600     9.7433576600    13.7760467500
   33.0870971700     8.8614406600    14.3990821800
   34.2797699000     9.5864658400    15.0189590500
   56.2237091100    38.9147491500     9.7616148000
   56.2225647000    38.0347824100    11.0228147500
   58.7665138200    36.9073143000    11.1654319800
   60.3074455300    36.9632492100    11.1878824200
   56.7379074100    36.0728454600    11.9468803400
   57.1339607200    37.2313003500    12.8745927800
   31.8097229000     1.2112288500    11.1598014800
   32.5687751800     1.6729600400     9.9047298400
   55.1978759800    40.6113624600    12.8532037700
   55.1481323200    40.0335769700    11.4330749500
   63.6725311300    39.5868568400    11.2044420200
   62.8943481400    39.1883430500     9.9337587400
   62.4180412300    37.7254638700    11.5162315400
   61.7469024700    37.5784492500    12.8817853900
   40.0527017700     0.7431415000    11.8037738800
   40.0032365900    -0.1018330100    13.0924854300
   39.0078392000     1.8874964700    10.1241321600
   38.8909606900     2.7790596500    11.3713359800
   36.5200729400     4.0554113400    10.9990701700
   35.7318916300     5.0487461100    10.1276731500
   34.3450470000     4.0124034900    11.3768177000
   33.0300445600     3.2336397200    11.4994297000
   38.3206749000     4.8511123700    12.0739250200
   37.6585044900     3.8279123300    13.0055322600
   51.0183715800    10.8538332000    15.0874919900
   52.2701072700    10.9828796400    15.9515972100
   32.2254371600     6.9124555600    13.5583934800
   31.5346145600     7.4044032100    14.8521575900
   50.2237739600     7.2400207500    11.0872936200
   49.4946212800     8.5974111600    11.0465326300
    3.3005783600     5.2856416700    12.0808401100
    4.6017561000     5.9482007000    11.6029300700
   49.3977584800    10.7600212100    11.6071968100
   49.3831024200     9.8838386500    12.8769483600
   33.0019378700     8.2563810300     9.7662591900
   34.2631378200     7.5095558200    10.2271404300
   32.6163673400     5.3907623300    11.9661293000
   32.5694580100     6.8453021000    11.4696483600
   65.2757873500    34.4969787600     9.6804418600
   65.3799896200    35.9897842400    10.0446691500
   63.9148140000    34.8902626000    11.4095420800
   62.6731300400    35.5948448200    11.9809675200
   68.1060104400    38.1279983500    11.0526866900
   67.3283309900    39.4583168000    11.1313743600
   43.3247049400     0.5701602400    11.6919918100
   42.1047571300    -0.2086025800    12.1837062800
   50.9092178300    39.1491241500     9.7778081900
   52.1492004400    38.3375091600    10.1828231800
   53.1636505100    40.8626899700    12.0483627300
   51.9039459200    40.1315498400    11.5583219500
   47.5794601400     4.9970383600    10.2441654200
   46.7750206000     3.9597175100    11.0273437500
   44.8117218000     4.7444515200    11.9478273400
   45.5989646900     3.7312915300    12.7878007900
    1.6533327100     3.8672044300    11.4989147200
    2.9864003700     3.1138918400    11.5761451700
   44.5218086200    11.6200790400    16.5560455300
   44.4005355800    10.7018470800    15.3532295200
   42.1373443600    13.4124317200    14.2760620100
   43.3475303600    12.6569862400    14.8321008700
   38.7424926800     8.0061149600    14.6779060400
   38.7126121500     6.5984382600    15.2768373500
   37.4742813100     8.8299350700    11.1312675500
   38.2282104500     7.4904422800    11.1137180300
   39.1892395000     6.6499924700    13.0183992400
   40.0080947900     6.3127422300    11.7518634800
   46.1136703500     7.4903945900    10.2794036900
   45.7051391600     8.7049818000    11.1297817200
   44.4438743600     6.8886413600    11.5431709300
   43.0664291400     6.2322073000    11.7251548800
   46.0637893700    10.8118686700    11.5749626200
   47.2901687600    10.0066003800    12.0414295200
   52.8326492300    34.7914695700    10.9100818600
   53.5699386600    34.3622779800     9.6370019900
   55.5628776600    34.3346252400    12.8008947400
   55.0810661300    34.6949691800    11.3870735200
   32.9506530800     5.9894127800    15.3592243200
   32.4666442900     4.6552701000    15.9268198000
   34.0974502600     4.0827302900    14.9280223800
   34.1648292500     3.5429194000    13.4939107900
   47.7134361300    14.5331230200    10.2509307900
   47.7309989900    13.6549606300     8.9994220700
   46.3275680500    12.6878461800    10.3829765300
   44.9993324300    12.8412256200    11.1292495700
   50.4143371600    12.9091243700    11.2581005100
   49.0875587500    12.7345142400    10.5131635700
   29.8388214100     4.0675458900    10.1231613200
   30.6795883200     2.7744269400    10.1253929100
    4.7499327700     2.3899869900    10.3437061300
    4.2459878900     1.2275339400    11.2147150000
    6.0983877200     6.2863345100     9.9277658500
    6.8825988800     5.9033927900    11.1921587000
   37.4839744600     4.9072113000    15.7200002700
   36.7985687300     6.0085477800    16.5396671300
   37.4018440200     2.8003630600    15.1351127600
   36.1751060500     3.4951252900    14.5394229900
   40.8463668800     3.0475597400    10.4099006700
   42.3767547600     2.9990422700    10.3442649800
   44.2243194600     1.7326252500     9.9679508200
   44.2967262300     2.6681258700    11.1814193700
   41.5608062700     5.2069435100    10.6350717500
   41.5746917700     6.6673746100    10.1508426700
   46.9896125800     9.2773666400    15.5551872300
   47.7644004800     8.2999563200    16.4479141200
   50.4743881200     8.7803516400    14.5047245000
   49.2223167400     9.4763050100    15.0566625600
   45.7754859900     9.7450933500    13.7239923500
   45.0233879100     8.7375545500    14.6097936600
   48.2982444800     7.0650386800    10.0069418000
   47.5340652500     6.5972590400     8.7577304800
   34.5028991700     6.1332120900    16.7037296300
   35.1644363400     6.3949508700    18.0474205000
   47.8000030500    21.4200000800     0.6100000100
   48.4600029000    20.0300006900     0.5799999800
   46.1199989300    19.7399997700     0.6599999700
   45.5699996900    18.5499992400     1.4600000400
   45.9700012200    16.3400001500     1.8899999900
   45.8300018300    17.0100002300     3.2599999900
   49.2500000000    17.6900005300     1.9499999300
   47.9099998500    17.1000003800     2.4200000800
   50.5499992400    18.8900013000     0.4500000200
   50.3700027500    19.7500000000     1.6799999500
   43.1300010700    21.2800006900     1.8799998800
   44.3899993900    20.4099998500     1.9200000800
   44.8999977100    22.5000000000     2.3700001200
   45.3199996900    23.7599983200     3.1500001000
   46.9700012200    23.2500000000     1.5499999500
   47.6200027500    23.6700019800     0.2500000000
   49.4300003100    23.4500007600     1.8700001200
   50.8699989300    24.0000000000     1.8600000100
   51.5399971000    20.8199996900     3.4299998300
   50.8900032000    21.8600006100     2.5099997500
   50.8156509400    22.4334602400     7.2011432600
   52.0651092500    23.2253093700     6.7862167400
   50.0188217200    20.9474411000     8.6084795000
   49.1293296800    22.2004776000     8.4965715400
   47.5705528300    23.4832115200     7.5269312900
   47.5697135900    23.5559310900     9.0626344700
   48.3875198400    24.5580978400     5.7128005000
   47.5687103300    25.5960693400     6.4872164700
   50.0196304300    24.1438694000     4.0091805500
   50.4021110500    23.8319053600     5.4556598700
   50.5345840500    18.9086952200     7.7752370800
   49.2636795000    18.7431964900     8.6151104000
   50.7234191900    17.7069435100     5.7591528900
   52.0719223000    17.8749046300     6.4605164500
   51.7842636100    21.3405685400     5.5263643300
   51.7553291300    19.8048210100     5.4628295900
   43.6574897800    21.7482585900     5.7590723000
   43.1585006700    22.9657154100     6.5513792000
   44.7722969100    23.7149219500     5.3106756200
   46.0814056400    24.5060424800     5.2617640500
   46.0897598300    22.0454216000     8.4226484300
   44.7585105900    21.9398860900     7.6740951500
   43.3816490200    20.5852165200     3.9884262100
   42.0999679600    20.4586620300     4.8273043600
   43.5587692300    18.9953308100     5.7535119100
   44.3402252200    17.6622409800     5.7239437100
   45.2781715400    19.8962383300     8.4092121100
   44.7616577100    18.6690349600     7.6386637700
   47.6608581500    16.8446235700     7.1115293500
   47.6108398400    15.3674621600     6.6979303400
   49.0231857300    16.3716201800     5.4205250700
   49.5332374600    16.6476173400     4.0021152500
   44.9047927900    15.6954078700     4.9250974700
   46.1447219800    16.4713878600     5.3900141700
   46.9099807700    18.2644939400     8.5094280200
   47.7652778600    17.2648544300     9.2980489700
   60.2027587900    27.6587581600     6.7593579300
   58.6666526800    27.6239357000     6.7775545100
   62.0803489700    28.8186359400     6.9967608500
   62.0507087700    27.9452858000     5.7289223700
   56.7649536100    28.8574962600     7.0683431600
   57.5553855900    29.3331680300     5.8385329200
   59.4086761500    24.0236454000     6.8107624100
   59.4432869000    25.5064868900     6.4178700400
   55.4099998500    25.1000003800     0.2200000000
   55.6800003100    24.4300003100     1.5399999600
   58.6000022900    23.2800006900     1.3800000000
   60.1399993900    23.2299995400     1.3199999300
   56.6099968000    22.6399993900     2.2699999800
   57.0599975600    23.7899990100     3.1799998300
   55.7099990800    28.6899986300     1.6100000100
   57.0800018300    28.8400001500     1.0099999900
   55.3000030500    27.1399993900     3.3800001100
   55.0600013700    26.5100002300     2.0000000000
   16.3900013000    25.6500015300     1.5299999700
   17.3599987000    24.5900001500     1.0499999500
   15.0799999200    23.8500003800     1.6799999500
   14.3499994300    23.6700019800     3.0199999800
   16.2299995400    27.9399986300     1.9900000100
   16.1300010700    27.0699996900     3.2699999800
   62.6900024400    29.2300014500     0.2500000000
   62.6700019800    30.0000000000     1.5700000500
   60.2999954200    31.7600021400     1.5700000500
   59.8399963400    33.1699981700     1.2400000100
   58.1300010700    31.6700000800     1.9800000200
   56.9399986300    30.6900005300     1.9700000300
   62.1599998500    32.0200004600     2.3899998700
   61.3999977100    31.0400009200     3.2899999600
   42.3378028900    17.4138793900     6.6603140800
   41.5154838600    16.9432277700     7.8629012100
   39.9456329300    19.8264370000     5.1029224400
   40.0520668000    20.6528072400     3.7985448800
   38.8691482500    17.8193187700     5.5304946900
   40.1652679400    17.8971691100     6.3450136200
   44.0925178500    13.8013544100     4.1118245100
   43.2191810600    14.2003116600     5.3242988600
   40.8034324600    14.2851524400     5.5723276100
   41.6141891500    15.3099679900     6.3614249200
   38.3499984700    14.0000000000     1.3500000200
   37.5600013700    15.3199996900     1.2599999900
   63.0665206900    30.1865997300     8.4875335700
   62.5025596600    28.9298057600     9.1635675400
   50.7700004600    32.6800003100     2.4400000600
   52.0999984700    33.3400001500     2.0299999700
   13.6800003100    17.5900001500     1.8000000700
   13.7399997700    16.7399997700     3.0799999200
   45.7999992400    14.8199996900     0.1499999900
   46.9000015300    14.5599994700     1.1800000700
   56.5000000000    32.8600006100     2.4900000100
   56.6300010700    34.2999992400     1.9700000300
   19.4268131300    28.8001899700     8.4117736800
   20.1289482100    30.1724720000     8.3746185300
   20.5933456400    32.2645301800     7.7123637200
   20.5318260200    32.2286453200     9.2412176100
   41.9700012200    21.7700004600    -0.0899982500
   42.2100029000    22.8299999200     0.9799999600
   16.7099990800    21.3400001500     1.6400001000
   15.3400001500    21.8499984700     2.0999999000
   65.2724685700    33.8459167500     7.4935870200
   65.9418029800    32.7835388200     8.3684959400
   48.3191871600    27.8009376500     6.6526374800
   46.7822189300    27.7471561400     6.6300206200
   50.2667694100    28.0877971600     5.7220668800
   50.1859626800    28.9668083200     6.9727048900
   44.8645248400    28.8165683700     6.9058327700
   44.7705459600    27.9081878700     5.6759643600
   51.6083984400    27.0383548700     4.1895804400
   50.8075370800    26.0124492600     5.0138692900
   43.4618454000    26.7912654900     4.0566148800
   44.2823028600    25.8429298400     4.9338240600
   43.8500022900    24.0799999200     1.5499999500
   42.9799995400    25.3099994700     1.6500001000
   57.1745338400    20.0385780300     8.4408769600
   56.6709594700    18.7676849400     9.1286544800
   11.3619499200    18.3033523600     8.5485467900
   12.1467971800    17.2392253900     7.7703971900
   19.6399993900    27.6900005300     1.9700000300
   18.2900009200    27.0699996900     2.4099998500
   52.0900001500    25.2500000000     0.1499999900
   53.1500015300    24.7999992400     1.1399999900
   14.8582344100    18.9468116800     7.5151157400
   13.6543922400    18.7222938500     8.4511203800
   53.2299995400    27.4099998500     2.6199998900
   52.1800003100    26.4400005300     2.0799999200
   47.4900016800    32.4599990800     0.5400000200
   46.7000007600    31.5100002300     1.4300000700
   21.0100002300    32.1900024400     2.3299999200
   21.7600021400    31.1800003100     3.2100000400
   49.0500030500    31.3500003800     1.8899999900
   50.3700027500    30.5699996900     2.0299999700
   59.3914489700    23.6065254200     9.1071996700
   60.1688919100    22.5771675100     8.2898311600
   53.5600738500    17.0293216700     7.7591571800
   54.3090782200    17.5440063500     6.5239343600
   56.2346496600    18.6792011300     6.9210081100
   56.2792244000    17.8442974100     5.6356210700
   53.8777008100    20.6798515300     4.9716815900
   55.1577072100    19.9148521400     5.3489346500
   52.7975463900    14.2593336100     5.5648112300
   53.5380744900    15.3639583600     6.3374214200
   50.7763748200    14.9650011100     4.8033947900
   50.7868232700    13.5185823400     5.3183507900
   48.7900009200    15.2799997300     1.7599999900
   49.5200004600    13.9400005300     1.6799999500
   50.5205612200    29.0914440200     9.1846866600
   51.0731964100    30.3266830400     8.4577312500
   63.0000000000    33.9799995400     3.1400001000
   63.6999969500    33.5299987800     1.8400000300
   51.8722496000    32.4954643200     8.4366140400
   50.5287933300    32.3742256200     7.7068491000
   10.4499998100    14.3499994300     0.3400000300
   10.0300006900    15.5100002300     1.2500000000
   20.6800003100    34.2999992400     1.8000000700
   19.3299999200    33.5800018300     1.9499999300
   56.3293457000    29.1018180800     9.2193374600
   54.9737854000    29.0008354200     8.5135688800
   10.4200000800    17.6100006100     1.9200000800
   11.6499996200    16.7500000000     2.2300000200
   52.7500000000    20.8500003800     1.5299999700
   53.6700019800    19.7299995400     1.0499999500
   55.5200004600    20.9699993100     3.3099999400
   55.0299987800    21.0400009200     1.8600000100
   53.4452209500    33.8736076400     7.4561185800
   54.2571487400    32.8756141700     8.3006401100
   56.8781242400    33.5534286500     5.9472231900
   56.8204879800    32.6451797500     7.1886892300
   55.8056640600    31.1525898000     8.4584312400
   56.3592453000    32.3333129900     9.2658433900
   57.8446617100    31.5499801600     5.5430054700
   57.7894744900    30.9772262600     4.1185493500
   16.0303268400    21.8947010000     5.6687974900
   15.2191486400    22.3429946900     6.8980426800
   14.3675508500    20.9173469500     8.3600931200
   14.8602495200    22.0895481100     9.2164173100
   13.4709491700    24.3782730100     5.0892887100
   14.8420276600    23.7037181900     5.1810150100
   12.0238018000    20.5500011400    -0.9000015300
   12.0238018000    21.4599990800     0.3200006500
   58.1100006100    19.6499996200     0.8500000200
   56.8400001500    19.8400001500     1.6900000600
   14.7800006900    19.8099994700     1.4800000200
   13.4099998500    19.6599998500     0.7999999500
   53.7300033600    31.5200004600     0.6800000700
   54.6199989300    30.2800006900     0.5600000000
   52.1699981700    29.8499984700     0.9099999700
   51.6699981700    28.6999988600     1.7799999700
   53.5799980200    34.2200012200     0.7699999800
   54.5100021400    33.4500007600     1.6900000600
   21.8566398600    32.1925277700     5.8684153600
   21.1958026900    33.5815811200     5.9046626100
    7.7299165700    14.2857208300     5.2884907700
    8.4871568700    13.9061470000     3.9987590300
   45.7501678500    30.0515632600     5.2674393700
   46.9594993600    30.8921432500     4.8296184500
   18.5973892200    26.4616546600     5.8376650800
   17.8545932800    25.3699970200     6.6125154500
   15.1011648200    25.8582725500     4.7893815000
   16.3350486800    26.5420150800     5.4046049100
   17.8904991100    27.2843933100     7.7427902200
   17.1683464100    28.4025993300     8.5006876000
   61.3566207900    32.2049675000     5.8164811100
   62.1249008200    32.6166725200     7.0828552200
   62.5471420300    32.1757202100     9.3602552400
   63.7602424600    32.3903808600     8.4527835800
   61.0576820400    30.0226974500     5.3681287800
   59.8101806600    30.8062267300     4.9435153000
   17.4300003100    30.0900001500     0.7300000200
   18.9600009900    30.0200004600     0.6499999800
   21.3000011400    28.5799999200     1.0800000400
   20.7800006900    29.8999996200     1.6100000100
   65.3800048800    32.2900009200     0.8700000000
   65.4300003100    33.6299972500     0.1499999900
   48.8840065000    33.4396553000     6.6453223200
   49.2929801900    32.2276649500     5.7969675100
   38.7185058600    13.5654315900     5.3602213900
   39.3017311100    13.7942676500     3.9572682400
   49.0917015100    30.9700431800     4.0185513500
   49.0558280900    30.0917072300     5.2859478000
   11.3145408600    16.4284400900     5.7971048400
   12.0547637900    15.3679084800     6.6280708300
   38.4312934900    15.7384529100     4.7623329200
   37.1918067900    16.4815959900     5.2905945800
   10.1627121000    16.7255744900     3.9397809500
    9.4183645200    15.7780637700     4.8856773400
   55.3088302600    22.0420074500     5.9393749200
   56.1196861300    23.3396892500     5.9023723600
   57.9124755900    24.4124527000     5.2309742000
   56.6228027300    25.1845893900     4.8848681400
   57.8675384500    22.1835975600     8.5113458600
   56.5020790100    22.1501388500     7.8086986500
   52.7527694700    26.7159805300     5.9804306000
   53.5118026700    25.6794185600     6.8182544700
   54.9970054600    26.6512031600     5.5114626900
   56.3506507900    27.3655853300     5.4408826800
   52.6278724700    28.6042118100     8.5990600600
   53.5135955800    27.5732975000     7.8921990400
   23.9099998500    33.9899978600    -1.2300033600
   24.5199985500    34.4000015300     0.1000022900
   11.9476738000    13.7097444500     8.1917219200
   11.1743726700    13.2619323700     6.9470357900
   42.4323692300    17.3791027100     9.9058265700
   41.7002639800    16.0296535500     9.8838043200
   52.8827705400    17.5157699600     9.8935470600
   54.4163742100    17.4900703400     9.8160762800
   48.2483215300    27.7169208500     9.9423494300
   47.5256767300    27.2312469500     8.6713275900
   54.2092590300    23.6095657300     7.1158084900
   53.4455146800    24.0674476600     8.3760147100
   41.6904983500    23.6955223100     8.0615558600
   40.9160194400    23.3405761700     6.7771201100
   48.4760055500    13.3163375900     6.9411397000
   46.9380378700    13.2588138600     6.9905991600
   23.8584117900    35.0248374900    10.2271223100
   24.5390472400    33.6438293500    10.2182960500
   22.2746067000    33.3017540000    10.3074846300
   21.8087883000    32.0635604900    11.0798416100
   45.8390846300    29.9025249500    11.4236650500
   45.8316574100    30.5772113800    12.8051261900
   49.1425132800    31.4303550700    11.6875791500
   47.8593597400    30.6769790600    12.0588722200
   50.1184005700    32.4889297500     9.9103794100
   50.2578353900    33.4122276300    11.1206808100
    7.4736666700    14.3074274100    11.4567451500
    8.7436513900    13.4528589200    11.5176239000
    9.2177763000    15.5781641000    11.9672279400
    9.7316970800    16.7035560600    12.8725814800
   11.3110561400    16.2887821200    11.2005844100
   12.1485195200    16.7623653400     9.9990892400
   37.3731765700    16.3329715700    11.5210046800
   38.7008094800    17.1043300600    11.4185628900
   39.8326492300    13.8010015500    12.6269989000
   39.0843734700    14.9044504200    11.8472003900
   38.6011543300    15.0745878200    15.9657688100
   39.9244041400    15.8152599300    16.3288879400
   38.1415443400    17.1872444200    13.4846410800
   38.6288909900    16.8293819400    14.8767852800
   47.3995971700    30.2417087600    16.9551334400
   47.2736663800    28.7965164200    16.4852371200
   48.8337707500    29.9038772600    15.1779890100
   49.3550949100    30.2538032500    13.7758884400
   44.9270324700    29.3717613200    14.3989954000
   46.1197433500    30.0967063900    15.0188531900
   44.2373123200    22.3499641400    15.8576793700
   45.5767364500    22.5051307700    15.1723060600
   47.4836158800    17.3280868500    16.4440937000
   47.3555297900    18.8141059900    16.0898094200
   44.3834838900    18.3954391500     9.7614851000
   44.3823242200    17.5158367200    11.0229406400
   46.9263000500    16.3911171000    11.1661224400
   48.4672393800    16.4470882400    11.1885881400
   44.8977737400    15.5551137900    11.9470233900
   45.2942123400    16.7129974400    12.8752765700
   43.6518058800    21.7209663400    11.1598768200
   44.4094543500    22.1831855800     9.9042406100
   43.3560752900    20.0909576400    12.8534755700
   43.3066597000    19.5136451700    11.4331874800
   51.8300247200    19.0682525600    11.2042312600
   51.0530242900    18.6694259600     9.9329681400
   50.5775299100    17.2074527700    11.5163478900
   49.9068985000    17.0602245300    12.8822984700
   51.8942718500    21.2534217800    11.8043985400
   51.8463707000    20.4089508100    13.0935239800
   50.8481407200    22.3974056200    10.1242981000
   50.7310829200    23.2890033700    11.3714466100
   48.3601989700    24.5654640200    10.9989938700
   47.5719757100    25.5587501500    10.1275930400
   46.1851844800    24.5223693800    11.3766679800
   44.8702201800    23.7435455300    11.4991436000
   50.1607322700    25.3612804400    12.0738945000
   49.4986152600    24.3380279500    13.0054874400
   52.0073242200    13.0338048900    14.8030872300
   51.9221916200    13.9640903500    13.5681047400
   44.0653190600    27.4225711800    13.5584440200
   43.3744468700    27.9146156300    14.8521509200
   62.0637092600    27.7505188000    11.0873403500
   61.3348579400    29.1080932600    11.0465431200
   15.1405735000    25.7957992600    12.0808124500
   16.4417228700    26.4583435100    11.6028699900
   61.2383232100    31.2718563100    11.6074075700
   61.2235260000    30.3951168100    12.8766803700
   44.8419876100    28.7668018300     9.7662582400
   46.1030883800    28.0197677600    10.2271089600
   44.4564132700    25.9007854500    11.9660368000
   44.4095039400    27.3553657500    11.4696579000
   53.4333763100    13.9812965400     9.6799001700
   53.5379562400    15.4741754500    10.0438871400
   52.0737495400    14.3740730300    11.4097509400
   50.8321952800    15.0783710500    11.9819240600
   39.8232040400    20.0528602600    13.7424583400
   39.0558624300    18.9948425300    14.5492601400
   56.2617797900    17.6094684600    11.0533037200
   55.4842186000    18.9399623900    11.1318016100
   55.1662063600    21.0798435200    11.6921129200
   53.9467239400    20.3009758000    12.1844635000
   39.0656127900    18.6294384000     9.7767286300
   40.3068199200    17.8193359400    10.1815013900
   41.3209075900    20.3430099500    12.0484533300
   40.0612831100    19.6122512800    11.5578069700
   59.4194488500    25.5070991500    10.2442369500
   58.6149520900    24.4697475400    11.0273275400
   56.6516342200    25.2544422100    11.9477214800
   57.4389610300    24.2413501700    12.7876844400
   13.4933147400    24.3772316000    11.4989681200
   14.8262939500    23.6237831100    11.5761680600
   50.5825576800    28.5162715900    14.6778984100
   50.5526123000    27.1085777300    15.2768268600
   49.3144416800    29.3403816200    11.1311683700
   50.0681991600    28.0007743800    11.1137237500
   51.0292778000    27.1601276400    13.0183801700
   51.8480987500    26.8228416400    11.7518367800
   57.9537162800    28.0005855600    10.2794694900
   57.5452117900    29.2154521900    11.1294632000
   56.2838554400    27.3987312300    11.5432109800
   54.9064483600    26.7422275500    11.7251625100
   57.9038810700    31.3237018600    11.5750923200
   59.1302681000    30.5180587800    12.0407953300
   40.9927177400    14.2750988000    10.9107303600
   41.7297325100    13.8465728800     9.6371851000
   43.7226295500    13.8189296700    12.8011560400
   43.2406921400    14.1785564400    11.3871574400
   44.7905883800    26.4994964600    15.3592090600
   44.3067703200    25.1652374300    15.9267311100
   45.9376869200    24.5930709800    14.9277877800
   46.0050010700    24.0531539900    13.4937038400
   51.3840255700    15.0622463200    15.3489599200
   49.9540939300    15.3157796900    15.8168621100
   48.9741058300    17.8571510300    14.8002538700
   50.2942810100    17.0926685300    14.9743070600
   59.5534896900    35.0475235000    10.2506446800
   59.5708274800    34.1697387700     8.9990139000
   58.1671524000    33.2013740500    10.3834495500
   56.8391380300    33.3554306000    11.1297149700
   62.2545394900    33.4231987000    11.2581825300
   60.9278183000    33.2479400600    10.5135431300
   41.6786346400    24.5773963900    10.1231718100
   42.5193557700    23.2842540700    10.1252574900
   16.5896453900    22.8996200600    10.3438301100
   16.0853424100    21.7371654500    11.2146797200
   17.9384021800    26.7964725500     9.9277229300
   18.7225952100    26.4134578700    11.1920890800
   49.3240737900    25.4171848300    15.7200336500
   48.6385688800    26.5185451500    16.5396060900
   49.2423934900    23.3101120000    15.1349010500
   48.0154876700    24.0049247700    14.5394516000
   52.6863479600    23.5574550600    10.4099979400
   54.2167205800    23.5089035000    10.3442287400
   56.0643959000    22.2427158400     9.9678440100
   56.1366272000    23.1781158400    11.1813783600
   53.4008331300    25.7169246700    10.6350135800
   53.4146881100    27.1773681600    10.1508007000
   43.3775329600    14.8560447700    15.4234132800
   44.0961227400    16.2030181900    15.4722747800
   46.0038909900    17.4832077000    14.8531875600
   44.6815261800    18.1455917400    14.4611759200
   40.9780731200    19.3996849100    15.5814418800
   41.5849647500    18.2735157000    16.4199047100
   43.1399955700    19.4851703600    15.0242090200
   44.3350029000    20.4407386800    14.8894043000
   60.1382751500    27.5752449000    10.0069236800
   59.3741264300    27.1073913600     8.7577304800
   42.1039581300    16.2579612700    16.7366008800
   41.5704422000    16.6391677900    18.1106300400
   46.3429184000    26.6433048200    16.7036933900
   47.0044784500    26.9049682600    18.0473880800
   12.1199998900     0.0000000000     0.3200000200
   33.4400024400    39.8699989300     0.9900000100
   34.3499984700    37.6900024400     2.3600001300
   37.0400009200    37.4300003100     2.4099998500
   38.0600013700    39.6199989300     1.1200000000
    8.3699998900     0.5799999800     2.4500000500
    9.8199996900     2.8600001300     2.2500000000
   12.2899999600     2.6800000700     1.0599999400
   14.7200002700     2.9699997900     2.4099998500
   15.7500000000     0.4500000200     2.4900000100
   15.7760925300     2.2221884700     6.4045290900
   14.5279874800     1.4170165100     8.6665229800
   12.0287056000     2.3995146800     8.3224115400
   12.0093326600     4.1487841600     6.1965222400
   14.4125833500     4.0033521700     4.9137954700
   38.2853736900    39.7342300400     8.6140899700
   39.3948288000    38.8784217800     6.2822475400
   16.6207542400     0.0735296100     5.0150775900
    8.4605684300     2.0152981300     6.2620830500
    9.7020854900     3.8938846600     4.7796936000
    9.6792326000     1.1008666800     8.4841022500
   31.2379303000    40.9073486300     4.9034853000
   31.9538345300    38.7428131100     6.3181824700
   33.4709777800    39.4331626900     8.4172115300
   35.7327270500    36.7918357800     6.3164234200
   38.0174598700    36.9703941300     4.9074716600
   33.4868583700    37.0973892200     4.8537025500
   35.9546966600    38.3579483000     8.5002288800
   23.9206275900     6.5907135000     7.0570526100
   25.9851417500     8.0954761500     6.2205877300
   21.7557754500     8.0036945300     6.3093180700
   23.8791770900     4.0989060400     6.0198640800
   19.4899997700     4.4899997700     1.0899999100
   23.8100013700     2.5600001800     0.7900000200
   21.4799995400     3.0299999700     2.2300000200
   20.7200012200     8.8299999200     1.1300000000
   19.4400005300     6.8499999000     2.4800000200
   28.2600002300     4.2600002300     1.1000000200
   26.2299995400     2.7900002000     2.1099999000
   28.4400005300     6.6199998900     2.3999998600
   27.6799984000     8.8400001500     1.0599999400
   24.0000000000    11.7399997700     1.2300000200
   21.8099994700    10.8899993900     2.5099997500
   26.1899986300    10.6400003400     2.3700001200
   29.6690635700    37.4509048500     6.8795833600
   28.5573503400    41.1271477700     4.7133717500
   27.5720901500    38.9703903200     6.0499973300
   32.3128280600    34.6703414900     5.0271511100
   29.8151798200    34.8943634000     6.0513820600
   25.9300003100    35.0299987800     0.7500000000
   27.4931545300     8.6993274700     8.3781452200
   15.6900005300    13.0499992400     2.4300000700
   48.9200019800    37.2500000000     2.1699998400
   34.1000022900    35.2999992400     1.1000000200
   20.5000000000    13.2200002700     2.5000000000
   32.1673011800     8.6956319800     8.3425941500
   31.9084205600    11.3807907100     8.4495916400
    6.3599996600     1.3999999800     0.8600000100
   27.7600002300     0.5400000200     2.1099999000
   29.6519870800    12.8904924400     8.3645095800
   12.0341949500     6.7432727800     6.9629235300
   14.1428642300     8.2203073500     6.1699647900
    9.8364553500     8.0534668000     6.0977549600
   15.7603025400     6.3529939700     5.1042833300
    8.2274122200     6.1613836300     4.9864182500
    7.4299998300     3.8800001100     1.3099999400
   45.3212394700    39.5824356100     8.3303241700
   47.7209701500    38.2894249000     8.5969009400
   31.1100006100     6.3899998700     2.4200000800
   16.6599998500     4.4800000200     1.0700000500
   50.0605316200    39.6954040500     8.4094886800
   16.7399997700     6.7299995400     2.6300001100
   12.0599994700    11.1199998900     1.0399999600
   33.3199996900    10.8199996900     2.2799999700
   14.2899999600    10.7299995400     2.5000000000
   23.8072547900     2.5881972300     8.2697401000
   41.6697769200    37.5499458300     6.7758603100
   43.8587188700    38.9873352100     6.1245150600
   43.0157777700    41.2702185800     4.9311156300
   41.7684249900    34.9331588700     6.0906486500
   39.4352302600    34.6406326300     4.7218856800
   36.8199996900    34.8799972500     1.4600000400
   15.5429134400     8.8339433700     8.4120206800
   27.2799987800    13.0900001500     2.2500000000
   15.4747343100    11.5279750800     8.4990520500
   45.2000007600    35.2800025900     0.7400000100
   32.0299987800    13.2100000400     2.4200000800
   20.3206729900     8.9232692700     8.4260759400
   46.2099990800    37.2600021400     2.3099999400
   41.7399961400    41.2200008900     1.0299999700
   20.3199996900     0.6100000100     2.3999998600
   17.8594379400    12.8216247600     8.2752914400
   21.8879127500    12.3889579800     6.4528036100
   20.2893829300    11.6236867900     8.4690389600
   22.5675239600    10.2405347800     5.0234866100
   27.6343460100     2.1900091200     6.1776609400
   26.2501373300     1.3898580100     8.3733997300
   26.1805744200     3.8217687600     4.6195192300
   23.9000015300     0.0000000000     0.0600004200
   45.5699996900    39.6599998500     1.3199999300
   49.6699981700    39.6599998500     1.2200000300
   18.1800003100    10.0699996900     0.4400000000
   15.8099994700     8.9099998500     1.2200000300
   18.1599998500    12.8400001500     1.1699999600
   33.4751510600    12.4049911500     6.4891214400
   44.1717872600    34.7694587700     4.9037933300
   10.4449605900    10.3863334700     4.8247523300
   29.6132888800     5.7998867000     6.3352737400
   27.3845176700     6.2276597000     4.8660774200
   29.8241024000     7.3331499100     8.5463466600
   26.1210212700    12.4861640900     6.3103160900
   27.3559989900    11.4295940400     8.4704847300
   25.2610034900    10.3325328800     4.8987779600
   30.0600013700    10.1300001100     0.5600000000
   32.3099975600     8.5399999600     1.2300000200
   29.7299995400    12.7400007200     1.0199999800
   14.1495895400    12.4430255900     6.3317527800
   27.4094295500    34.7254333500     4.8480119700
   13.1282987600    10.3918037400     4.9011998200
   47.6687240600    36.8172454800     6.3274812700
   26.1373729700    37.1250267000     4.7145280800
   45.4157257100    37.1635475200     4.8787908600
   20.0529632600     2.2812175800     6.5159587900
   21.4984474200     3.7819924400     4.8174400300
   21.4496326400     1.2603161300     8.5787620500
   18.0579662300     6.0935421000     6.4871983500
   20.2841262800     6.1841511700     4.9655966800
   17.9530944800     7.6226706500     8.7005519900
   35.5499992400    13.5000000000    -0.3000030500
   47.5159416200    34.2721557600     7.2103958100
   29.7789573700    37.4705581700     9.5549087500
   41.7812957800    37.5670204200     9.4408578900
   11.9414606100     6.6779699300     9.6522054700
   17.8703289000     3.5845370300     7.3949246400
    6.2264452000     3.2458877600     7.0826444600
   35.8531646700    34.3086471600     7.3101162900
   35.5843124400    13.5940380100     9.8920621900
   33.3039856000    12.3208437000    10.5829486800
   10.6314382600    10.1957120900    11.8875045800
   13.3060846300    10.1134634000    12.1586265600
   14.0988769500    12.2613811500    10.7125835400
   43.7989769000    34.6649589500    12.0201816600
   45.2816009500    36.9247093200    11.9340505600
   47.7075386000    36.6484794600    10.7523431800
   26.4123363500    36.9277458200    11.9514093400
   27.6826019300    34.5515403700    11.7175064100
   31.2560157800    13.5528421400    14.5778074300
   31.9655990600    11.3196620900    15.9846286800
   35.6282692000    38.4457054100    15.6880760200
   31.9755058300    38.6655654900    10.5244255100
   35.8727760300    36.7034378100    10.6159591700
   33.5016975400    36.9482345600    11.9348926500
    8.4266395600     2.0258104800    10.7022943500
   31.2040615100    40.8284568800    11.9475097700
   39.7485275300    38.8039474500    10.6629314400
   38.1682510400    37.1084365800    12.0259857200
   16.7104700200    -0.0895992800    12.1924552900
   15.8051757800     2.1340017300    10.9422111500
   12.0425901400     4.1070814100    10.4134197200
    9.8550300600     3.9420847900    11.9455671300
   14.1834936100     3.9759368900    12.0575609200
   40.4321060200    34.4427566500    14.4824924500
   27.9468193100    11.5250968900    15.4448165900
   26.0395851100     7.8289270400    10.4773712200
   27.4520721400     6.1536026000    12.0683937100
   25.3062210100     9.9409055700    11.9743070600
    9.7872362100     7.9812355000    10.5831604000
    8.3667945900     6.1968841600    12.0046100600
   41.6367263800    35.0995216400    10.4568147700
   39.4530639600    34.7278404200    11.9874200800
   43.9270095800    38.7676200900    10.4943132400
   19.3977525800    -0.2698818700    12.1372499500
   27.7107257800    38.8313407900    10.5727634400
   28.5015373200    40.8961563100    12.1095762300
   23.9313545200     4.0601487200    10.5390415200
   21.5888881700     3.8840296300    11.8680648800
   26.1511802700     3.7947177900    12.0520954100
   20.1935806300    11.3424167600    15.8938980100
   19.4245243100    13.4855794900    14.3650102600
   14.0457201000     8.1040439600    10.5225505800
   15.3931894300     6.3775539400    12.0783290900
   21.6295471200     7.9914674800    10.5742969500
   20.2810192100     6.2377996400    12.1078853600
   22.6170330000    10.0025348700    12.0733652100
   29.9907398200    34.9442939800    10.4205265000
   32.2206306500    34.5628585800    11.9082641600
   39.0046958900    36.2324256900    15.8551988600
   38.0435524000    38.3225898700    14.4364652600
   24.0189151800    13.5873880400     9.9804134400
   21.8340797400    12.1766338300    10.6293544800
   26.1805057500    12.2243890800    10.8161754600
    6.1553292300     3.1496608300     9.7698478700
   27.6093215900     1.9849239600    10.6786193800
   29.7537326800     5.6771812400    10.6981897400
   17.9265861500     3.5677046800    10.0903301200
   20.0154151900     2.0077703000    10.7556619600
   17.8436832400     6.1300997700    10.9720430400
   24.1584987600     9.1694755600    16.0101661700
   26.2981052400     9.6320276300    14.4557418800
   21.8244934100     9.5894374800    14.6556739800
   31.6568069500    36.1546859700    15.9970493300
   33.2809906000    37.7872619600    14.4850692700
   23.7750358600     6.6159105300     9.7382135400
   23.9599990800    20.5100021400     0.3200000200
   21.5900001500    19.3499984700     0.9900000100
   22.5000000000    17.1700000800     2.3600001300
   25.1900005300    16.9099998500     2.4099998500
   26.2100009900    19.1000003800     1.1200000000
   20.2099990800    21.0900001500     2.4500000500
   21.6599998500    23.3699989300     2.2500000000
   24.1300010700    23.1900005300     1.0599999400
   26.5599994700    23.4799995400     2.4099998500
   27.5900001500    20.9599990800     2.4900000100
   27.6159687000    22.7321472200     6.4046611800
   26.3677425400    21.9266414600     8.6665639900
   23.8685569800    22.9093933100     8.3224601700
   23.8492927600    24.6587734200     6.1965632400
   26.2525863600    24.5133552600     4.9138312300
   26.4359684000    19.2148380300     8.6143245700
   27.5449676500    18.3597641000     6.2822408700
   28.4601059000    20.5833206200     5.0152082400
   20.3003101300    22.5248889900     6.2618351000
   21.5419845600    24.4037628200     4.7797651300
   21.5189628600    21.6106777200     8.4840068800
   19.3889045700    20.3882103000     4.9032330500
   20.1039695700    18.2238082900     6.3181610100
   21.6209564200    18.9139518700     8.4170875500
   23.8828277600    16.2740593000     6.3159389500
   26.1673660300    16.4525718700     4.9074010800
   21.6372604400    16.5794410700     4.8535914400
   24.1047515900    17.8399982500     8.4994535400
   35.7606735200    27.1009082800     7.0569176700
   37.8251419100    28.6060543100     6.2204070100
   33.5957908600    28.5142478900     6.3092927900
   35.7192115800    24.6088314100     6.0199427600
   31.3299980200    25.0000000000     1.0899999100
   35.6500015300    23.0699996900     0.7900000200
   33.3199996900    23.5400009200     2.2300000200
   32.5600013700    29.3400001500     1.1300000000
   31.2800006900    27.3600006100     2.4800000200
   40.1000022900    24.7700004600     1.1000000200
   38.0699996900    23.2999992400     2.1099999000
   40.2799987800    27.1300010700     2.3999998600
   39.5200004600    29.3499984700     1.0599999400
   35.8400001500    32.2500000000     1.2300000200
   33.6500015300    31.4000015300     2.5099997500
   38.0299987800    31.1499996200     2.3700001200
   17.8192348500    16.9326229100     6.8796653700
   16.7083778400    20.6075553900     4.7134156200
   15.7223320000    18.4514007600     6.0500388100
   20.4650154100    14.1532745400     5.0283527400
   17.9674415600    14.3775806400     6.0503406500
   14.0799999200    14.5100002300     0.7500000000
   39.3330421400    29.2105560300     8.3782062500
   27.5300006900    33.5599975600     2.4300000700
   37.0699996900    16.7299995400     2.1699998400
   22.2500000000    14.7800006900     1.1000000200
   32.3400001500    33.7299995400     2.5000000000
   44.0072212200    29.2066936500     8.3425989200
   43.7499313400    31.8929119100     8.4489069000
   18.2000007600    21.9099998500     0.8600000100
   39.5999984700    21.0499992400     2.1099999000
   41.4938507100    33.4045257600     8.3643398300
   23.8741340600    27.2533836400     6.9628353100
   25.9827251400    28.7307510400     6.1699814800
   21.6764221200    28.5639743800     6.0977549600
   27.6002121000    26.8631324800     5.1043453200
   20.0674724600    26.6714477500     4.9864726100
   19.2700004600    24.3899993900     1.3099999400
   33.4720039400    19.0628433200     8.3303918800
   35.8723907500    17.7703094500     8.5961504000
   42.9500007600    26.9000015300     2.4200000800
   28.5000000000    24.9900016800     1.0700000500
   38.2138099700    19.1746425600     8.4095096600
   28.5799999200    27.2399997700     2.6300001100
   23.9000015300    31.6300010700     1.0399999600
   45.1599960300    31.3299980200     2.2799999700
   26.1299991600    31.2400016800     2.5000000000
   35.6475677500    23.0977420800     8.2697305700
   29.8199882500    17.0321826900     6.7755484600
   32.0094261200    18.4683113100     6.1246085200
   31.1671333300    20.7509346000     4.9307785000
   29.9216690100    14.4167470900     6.0904388400
   27.5892067000    14.1262435900     4.7230405800
   24.9699993100    14.3599996600     1.4600000400
   27.3829231300    29.3452930500     8.4120407100
   39.1199989300    33.5999984700     2.2500000000
   27.3158416700    32.0403366100     8.4987735700
   33.3499984700    14.7599992800     0.7400000100
   43.8700027500    33.7200012200     2.4200000800
   32.1606178300    29.4338913000     8.4262409200
   34.3600006100    16.7399997700     2.3099999400
   29.8900013000    20.6999988600     1.0299999700
   32.1599998500    21.1199989300     2.3999998600
   29.7013645200    33.3355140700     8.2752304100
   33.7317543000    32.9029617300     6.4534163500
   32.1308021500    32.1350135800     8.4681711200
   34.4074592600    30.7521286000     5.0244169200
   39.4745750400    22.6988105800     6.1771750500
   38.0905189500    21.8985176100     8.3737087200
   38.0207901000    24.3316078200     4.6196880300
   35.7399978600    20.5100021400     0.0600004200
   33.7200012200    19.1399993900     1.3199999300
   37.8199996900    19.1399993900     1.2200000300
   30.0200004600    30.5800018300     0.4400000000
   27.6500015300    29.4199981700     1.2200000300
   30.0000000000    33.3499984700     1.1699999600
   45.3184051500    32.9186592100     6.4890403700
   32.3251304600    14.2540750500     4.9054250700
   22.2852439900    30.8978557600     4.8255281400
   41.4533081100    26.3098564100     6.3354101200
   39.2245254500    26.7377433800     4.8661632500
   41.6639518700    27.8435974100     8.5463314100
   37.9648437500    32.9997215300     6.3085908900
   39.1970443700    31.9421405800     8.4710016300
   37.1013259900    30.8443088500     4.8995657000
   41.9000015300    30.6399993900     0.5600000000
   44.1500015300    29.0499992400     1.2300000200
   41.5699996900    33.2500000000     1.0199999800
   25.9923706100    32.9574546800     6.3302965200
   15.5623483700    14.2114620200     4.8482689900
   24.9690971400    30.9039268500     4.9022560100
   35.8227462800    16.2998924300     6.3255357700
   14.2873592400    16.6077213300     4.7137007700
   33.5683403000    16.6466884600     4.8792862900
   31.8928108200    22.7907848400     6.5157680500
   33.3383789100    24.2919044500     4.8175029800
   33.2895126300    21.7700004600     8.5787124600
   29.8979530300    26.6035575900     6.4872055100
   32.1242256200    26.6942291300     4.9656701100
   29.7929401400    28.1328811600     8.7005195600
   47.3899993900    34.0100021400    -0.3000030500
   35.6728935200    13.7563362100     7.2106189700
   17.9292202000    16.9525451700     9.5545902300
   29.9315795900    17.0500259400     9.4400711100
   23.7814903300    27.1880569500     9.6522178600
   29.7103672000    24.0944595300     7.3948693300
   18.0664234200    23.7558078800     7.0827288600
   24.0085411100    13.7928371400     7.3113422400
   47.4261322000    34.1071395900     9.8920764900
   45.1455459600    32.8331031800    10.5830364200
   22.4714546200    30.7068920100    11.8870019900
   25.1466922800    30.6253585800    12.1578168900
   25.9422512100    32.7756080600    10.7142267200
   31.9509410900    14.1477880500    12.0194454200
   33.4338302600    16.4063491800    11.9338884400
   35.8621292100    16.1341686200    10.7554292700
   14.5640335100    16.4094467200    11.9523820900
   15.8367023500    14.0355625200    11.7193985000
   35.6852836600    17.8995761900    15.5372486100
   31.9242687200    15.7079429600    16.0994358100
   33.3102760300    17.3000297500    14.4560031900
   23.6953182200    29.7120246900    16.1510448500
   25.9751148200    29.9924945800    14.6692647900
   21.6760520900    30.2513732900    14.4122943900
   25.7600326500    21.8528976400    15.9891901000
   23.7784595500    17.9262256600    15.6882715200
   20.1257057200    18.1465778400    10.5243349100
   24.0232162500    16.1879234300    10.6163358700
   21.6524143200    16.4305992100    11.9351625400
   20.2664012900    22.5353908500    10.7024421700
   19.3546123500    20.3092784900    11.9473848300
   27.8987026200    18.2847957600    10.6634044600
   26.3183879900    16.5900840800    12.0266342200
   28.5496807100    20.4199791000    12.1922769500
   27.6451091800    22.6438942000    10.9421358100
   23.8825130500    24.6170654300    10.4134464300
   21.6948490100    24.4519577000    11.9455146800
   26.0234832800    24.4858284000    12.0575618700
   28.5877418500    13.9288044000    14.4835224200
   39.7890853900    32.0379638700    15.4418430300
   20.5788822200    27.7907943700    14.4462308900
   41.9169654800    28.1144695300    15.6390485800
   37.8794899000    28.3396453900    10.4775533700
   39.2919387800    26.6636581400    12.0682849900
   37.1473121600    30.4529972100    11.9740390800
   21.6272583000    28.4916324600    10.5831241600
   20.2068119000    26.7070350600    12.0046043400
   29.7884597800    14.5840206100    10.4573202100
   27.6068210600    14.2121429400    11.9898986800
   35.5323753400    20.5050296800    16.4160652200
   37.8308715800    21.7344837200    15.5473346700
   33.2617263800    21.7896308900    15.5527324700
   31.9513244600    19.6155281100    14.6796121600
   32.0777168300    18.2482662200    10.4944906200
   31.2370090500    20.2399749800    12.1373863200
   15.8611564600    18.3123321500    10.5727148100
   16.6521987900    20.3767166100    12.1095418900
   35.7714614900    24.5700168600    10.5389614100
   33.4289703400    24.3938999200    11.8681259200
   37.9913902300    24.3043232000    12.0520381900
   32.0346145600    31.8546943700    15.8930215800
   31.2671089200    34.0000190700    14.3652896900
   29.8998279600    27.9232177700    15.6631565100
   27.3771438600    27.6638221700    14.6462898300
   25.8857364700    28.6145095800    10.5225477200
   27.2330932600    26.8876113900    12.0782861700
   33.4696426400    28.5016632100    10.5743866000
   32.1210746800    26.7477722200    12.1078910800
   34.4575347900    30.5136127500    12.0725574500
   18.1435451500    14.4282617600    10.4216957100
   20.3740673100    14.0453004800    11.9065437300
   21.4105873100    25.7290630300    15.8932724000
   22.6333808900    23.8580341300    14.4022741300
   27.1548175800    15.7135620100    15.8558006300
   26.1936683700    17.8032894100    14.4370079000
   35.8603630100    34.1017379800     9.9799013100
   33.6751480100    32.6898117100    10.6296873100
   38.0220985400    32.7386856100    10.8178987500
   17.9951362600    23.6594543500     9.7700357400
   39.4498138400    22.4934310900    10.6794538500
   41.5937423700    26.1872596700    10.6981105800
   33.7381134000    25.9694080400    16.1276989000
   32.3584671000    27.7435531600    14.6084547000
   34.3418846100    23.9911842300    14.3442268400
   29.5827179000    19.3212547300    16.0184536000
   27.4481430100    20.1863479600    14.6559524500
   25.8283538800    26.2089633900    16.2635879500
   25.2966690100    24.1167488100    14.6306333500
   29.7665615100    24.0776519800    10.0903120000
   31.8553447700    22.5176277200    10.7557239500
   29.6836738600    26.6401119200    10.9720220600
   38.0372047400    26.1265640300    16.0410671200
   39.4737358100    27.7906837500    14.5310745200
   37.0194664000    24.0787429800    14.5759983100
   35.9984741200    29.6817569700    16.0097217600
   38.1389083900    30.1435356100    14.4558725400
   33.6644401600    30.1001930200    14.6550760300
   19.8087139100    15.6377115200    15.9993848800
   21.4312839500    17.2685928300    14.4854068800
   35.6151619000    27.1259422300     9.7382221200
   35.8120269800    27.2273159000    17.2019729600
   29.4791202500    16.7146110500    16.9275322000
   23.3754463200    27.1599731400    17.1216774000
   35.8100013700     0.0000000000     0.3200000200
   57.1199989300    39.8699989300     0.9900000100
   58.0300064100    37.6900024400     2.3600001300
   60.7200012200    37.4300003100     2.4099998500
   61.7399978600    39.6199989300     1.1200000000
   32.0600013700     0.5799999800     2.4500000500
   33.5100021400     2.8600001300     2.2500000000
   35.9799995400     2.6800000700     1.0599999400
   38.4099998500     2.9699997900     2.4099998500
   39.4399986300     0.4500000200     2.4900000100
   39.4652633700     2.2226810500     6.4051604300
   38.2168960600     1.4164705300     8.6667442300
   35.7180481000     2.3995461500     8.3225193000
   35.6991653400     4.1487507800     6.1965618100
   38.1023750300     4.0035491000     4.9137063000
   61.9675521900    39.7334823600     8.6147918700
   63.0768013000    38.8783950800     6.2820534700
   40.3073310900     0.0730252600     5.0160217300
   32.1496162400     2.0146155400     6.2612438200
   33.3918342600     3.8936791400     4.7797775300
   33.3680000300     1.1010681400     8.4838829000
   54.9227562000    40.9084777800     4.9024400700
   55.6344604500    38.7435417200     6.3179988900
   57.1517372100    39.4329757700     8.4172401400
   59.4132537800    36.7920951800     6.3165431000
   61.6980934100    36.9704589800     4.9075160000
   57.1673049900    37.0977554300     4.8539023400
   59.6355819700    38.3584899900     8.5001735700
   47.6101989700     6.5907449700     7.0571990000
   49.6739807100     8.0959978100     6.2206535300
   45.4455642700     8.0036602000     6.3093347500
   47.5676803600     4.0989656400     6.0203418700
   43.1800003100     4.4899997700     1.0899999100
   47.5000000000     2.5600001800     0.7900000200
   45.1700019800     3.0299999700     2.2300000200
   44.4099998500     8.8299999200     1.1300000000
   43.1300010700     6.8499999000     2.4800000200
    4.5699996900     4.2600002300     1.1000000200
    2.5399999600     2.7900002000     2.1099999000
    4.7500000000     6.6199998900     2.3999998600
   51.3700027500     8.8400001500     1.0599999400
   47.6900024400    11.7399997700     1.2300000200
   45.5000000000    10.8899993900     2.5099997500
   49.8799972500    10.6400003400     2.3700001200
   53.3506698600    37.4502487200     6.8796205500
   52.2423898600    41.1272008500     4.7137446400
   51.2557678200    38.9709167500     6.0496845200
   55.9955215500    34.6698455800     5.0273933400
   53.4977417000    34.8940315200     6.0512580900
   49.6100006100    35.0299987800     0.7500000000
   51.1817855800     8.6998128900     8.3780880000
   39.3800010700    13.0499992400     2.4300000700
   25.2299995400    37.2500000000     2.1699998400
   57.7799987800    35.2999992400     1.1000000200
   44.1900024400    13.2200002700     2.5000000000
    8.4780302000     8.6951828000     8.3425178500
    8.2195434600    11.3801298100     8.4495153400
   30.0500011400     1.3999999800     0.8600000100
    4.0700001700     0.5400000200     2.1099999000
   53.3406143200    12.8908634200     8.3646907800
   35.7241401700     6.7432737400     6.9629039800
   37.8328399700     8.2203044900     6.1699700400
   33.5262641900     8.0535535800     6.0980062500
   39.4503021200     6.3530292500     5.1042728400
   31.9173069000     6.1613707500     4.9865102800
   31.1199989300     3.8800001100     1.3099999400
   69.0050430300    39.5810661300     8.3303728100
   24.0306472800    38.2893104600     8.5960454900
    7.4200000800     6.3899998700     2.4200000800
   40.3499984700     4.4800000200     1.0700000500
   26.3730011000    39.6933212300     8.4096059800
   40.4300003100     6.7299995400     2.6300001100
   35.7500000000    11.1199998900     1.0399999600
    9.6300001100    10.8199996900     2.2799999700
   37.9799995400    10.7299995400     2.5000000000
   47.4958381700     2.5876584100     8.2696466400
   65.3515625000    37.5499038700     6.7759614000
   67.5419158900    38.9860382100     6.1245002700
   66.7025091100    41.2698448000     4.9301519400
   65.4525070200    34.9335861200     6.0897827100
   63.1185188300    34.6416091900     4.7226066600
   60.5000000000    34.8799972500     1.4600000400
   39.2328949000     8.8339424100     8.4120321300
   50.9700012200    13.0900001500     2.2500000000
   39.1647186300    11.5279779400     8.4990520500
   21.5100002300    35.2800025900     0.7400000100
    8.3400001500    13.2100000400     2.4200000800
   44.0106124900     8.9233083700     8.4260711700
   22.5200004600    37.2600021400     2.3099999400
   65.4199926300    41.2200008900     1.0299999700
   44.0100021400     0.6100000100     2.3999998600
   41.5494194000    12.8216362000     8.2752914400
   45.5778694200    12.3889846800     6.4528222100
   43.9793548600    11.6236915600     8.4690256100
   46.2570648200    10.2404975900     5.0234975800
    3.9451620600     2.1888575600     6.1768493700
    2.5621008900     1.3881455700     8.3736019100
    2.4918363100     3.8215205700     4.6192388500
    0.2137994800     0.0000000000     0.0600004200
   69.2500076300    39.6599998500     1.3199999300
   25.9799995400    39.6599998500     1.2200000300
   41.8699989300    10.0699996900     0.4400000000
   39.5000000000     8.9099998500     1.2200000300
   41.8499984700    12.8400001500     1.1699999600
    9.7855939900    12.4047946900     6.4890432400
   20.4805202500    34.7699241600     4.9040389100
   34.1348609900    10.3864278800     4.8248524700
    5.9237999900     5.7996411300     6.3354611400
    3.6954987000     6.2272968300     4.8661909100
    6.1353130300     7.3325495700     8.5464801800
   49.8106346100    12.4863758100     6.3101410900
   51.0451355000    11.4298896800     8.4705143000
   48.9503173800    10.3328142200     4.8985824600
    6.3700003600    10.1300001100     0.5600000000
    8.6199998900     8.5399999600     1.2300000200
   53.4199981700    12.7400007200     1.0199999800
   37.8395156900    12.4430666000     6.3317794800
   51.0930290200    34.7256088300     4.8471303000
   36.8182678200    10.3918075600     4.9012007700
   23.9812355000    36.8174171400     6.3256125500
   49.8224830600    37.1251983600     4.7149033500
   21.7258052800    37.1637649500     4.8793678300
   43.7418441800     2.2804064800     6.5152769100
   45.1875495900     3.7817502000     4.8173832900
   45.1379928600     1.2596088600     8.5786523800
   41.7479362500     6.0935711900     6.4872207600
   43.9739761400     6.1841735800     4.9655642500
   41.6430892900     7.6226997400     8.7005519900
   11.8599996600    13.5000000000    -0.3000030500
   23.8266792300    34.2728118900     7.2107305500
   53.4602546700    37.4701271100     9.5547599800
   65.4623489400    37.5672683700     9.4411745100
   35.6313972500     6.6779880500     9.6521968800
   41.5601043700     3.5846021200     7.3949031800
   29.9164295200     3.2461741000     7.0828008700
   59.5381736800    34.3090477000     7.3101396600
   11.8944749800    13.5939035400     9.8920106900
    9.6144571300    12.3205204000    10.5827989600
   34.3213005100    10.1958389300    11.8874731100
   36.9960098300    10.1134891500    12.1585960400
   37.7888336200    12.2614526700    10.7125759100
   20.1079063400    34.6658668500    12.0194110900
   21.5919036900    36.9252624500    11.9337005600
   24.0202102700    36.6502304100    10.7538681000
   50.0967330900    36.9272766100    11.9525184600
   51.3663864100    34.5513877900    11.7192068100
   39.4894371000    11.4269790600    15.6483936300
   40.4255447400    13.4587049500    14.1673126200
   35.5452003500     9.2018766400    16.1511783600
   37.8249969500     9.4820137000    14.6696767800
   33.5259017900     9.7408943200    14.4124870300
   55.6560173000    38.6658706700    10.5245132400
   59.5534515400    36.7037429800    10.6158247000
   57.1822280900    36.9484481800    11.9346666300
   32.1158332800     2.0254240000    10.7029209100
   54.8868255600    40.8297157300    11.9469318400
   63.4297027600    38.8034248400    10.6640796700
   61.8487129200    37.1081886300    12.0264005700
   40.3969247900    -0.0906559500    12.1915569300
   39.4949226400     2.1341154600    10.9418087000
   35.7323494000     4.1070833200    10.4135465600
   33.5447082500     3.9420864600    11.9456882500
   37.8733444200     3.9756906000    12.0576105100
   51.6359138500    11.5254344900    15.4446067800
   32.4283409100     7.2806301100    14.4463348400
   49.7285003700     7.8292350800    10.4772148100
    3.7631251800     6.1532025300    12.0685615500
   48.9958915700     9.9411392200    11.9742889400
   33.4770927400     7.9813566200    10.5830135300
   32.0566291800     6.1970443700    12.0045814500
   65.3199462900    35.0998725900    10.4577312500
   63.1365814200    34.7287406900    11.9890584900
   67.6096115100    38.7664794900    10.4942779500
   43.0845010800    -0.2693058500    12.1374340100
   51.3937149000    38.8311996500    10.5739212000
   52.1847114600    40.8964462300    12.1096363100
   47.6202545200     4.0600786200    10.5384960200
   45.2784576400     3.8840057800    11.8683471700
    2.4629621500     3.7940354300    12.0523395500
   43.8835754400    11.3424263000    15.8939113600
   43.1145095800    13.4855766300    14.3650140800
   39.2271156300     7.1536216700    14.6462860100
   37.7357025100     8.1040134400    10.5225744200
   39.0830841100     6.3773765600    12.0783376700
   45.3193283100     7.9915790600    10.5743484500
   43.9709281900     6.2379102700    12.1079425800
   46.3068809500    10.0025844600    12.0734014500
   53.6734390300    34.9445991500    10.4210491200
   55.9043541000    34.5617027300    11.9065475500
   33.2604255700     5.2190370600    15.8933210400
   34.4830131500     3.3476793800    14.4025125500
   47.7086410500    13.5875148800     9.9803543100
   45.5240020800    12.1766271600    10.6293497100
   49.8700103800    12.2246351200    10.8163051600
   29.8452034000     3.1497933900     9.7700424200
    3.9207763700     1.9833600500    10.6794548000
    6.0642151800     5.6768612900    10.6981525400
   37.6783256500     5.6989126200    16.2636470800
   37.1462783800     3.6069176200    14.6306085600
   41.6162796000     3.5679884000    10.0902309400
   43.7046470600     2.0079734300    10.7558527000
   41.5336151100     6.1302394900    10.9720792800
   47.8482589700     9.1696014400    16.0104236600
   49.9874839800     9.6322622300    14.4556999200
   45.5144500700     9.5894346200    14.6556797000
   47.4644470200     6.6158828700     9.7381486900
   35.2254180900     6.6498808900    17.1217002900
   47.6499977100    20.5100021400     0.3200000200
   45.2799987800    19.3499984700     0.9900000100
   46.1899986300    17.1700000800     2.3600001300
   48.8800010700    16.9099998500     2.4099998500
   49.8999977100    19.1000003800     1.1200000000
   43.8999977100    21.0900001500     2.4500000500
   45.3499984700    23.3699989300     2.2500000000
   47.8199996900    23.1900005300     1.0599999400
   50.2500000000    23.4799995400     2.4099998500
   51.2799987800    20.9599990800     2.4900000100
   51.3058700600    22.7321605700     6.4046869300
   50.0577240000    21.9266338300     8.6665830600
   47.5585479700    22.9093971300     8.3224620800
   47.5392913800    24.6587715100     6.1965656300
   49.9425735500    24.5133590700     4.9138145400
   50.1259269700    19.2148628200     8.6143255200
   51.2347793600    18.3598613700     6.2822241800
   52.1498184200    20.5833473200     5.0151825000
   43.9901809700    22.5249595600     6.2618799200
   45.2319641100    24.4037818900     4.7797794300
   45.2089386000    21.6106872600     8.4840059300
   43.0788230900    20.3882370000     4.9032583200
   43.7939453100    18.2238445300     6.3181519500
   45.3109588600    18.9139766700     8.4170875500
   47.5727920500    16.2741127000     6.3159256000
   49.8572845500    16.4526577000     4.9073987000
   45.3272476200    16.5794487000     4.8535800000
   47.7947387700    17.8400211300     8.4994421000
   59.4502067600    27.1010379800     7.0570783600
   61.5139808700    28.6065292400     6.2204690000
   57.2855949400    28.5143890400     6.3092904100
   59.4077720600    24.6091480300     6.0202827500
   55.0199966400    25.0000000000     1.0899999100
   59.3400001500    23.0699996900     0.7900000200
   57.0100021400    23.5400009200     2.2300000200
   56.2500000000    29.3400001500     1.1300000000
   54.9700012200    27.3600006100     2.4800000200
   16.4099998500    24.7700004600     1.1000000200
   14.3799991600    23.2999992400     2.1099999000
   16.5900001500    27.1300010700     2.3999998600
   63.2099990800    29.3499984700     1.0599999400
   59.5299949600    32.2500000000     1.2300000200
   57.3400039700    31.4000015300     2.5099997500
   61.7200012200    31.1499996200     2.3700001200
   41.5092124900    16.9326381700     6.8796720500
   40.3982353200    20.6077423100     4.7135925300
   39.4122543300    18.4514579800     6.0501232100
   44.1550064100    14.1532821700     5.0283455800
   41.6574325600    14.3775892300     6.0503349300
   37.7700004600    14.5100002300     0.7500000000
   63.0217361500    29.2109718300     8.3780803700
   51.2200012200    33.5599975600     2.4300000700
   13.3800010700    16.7299995400     2.1699998400
   45.9399986300    14.7800006900     1.1000000200
   56.0300025900    33.7299995400     2.5000000000
   20.3178958900    29.2065696700     8.3425321600
   20.0610084500    31.8928794900     8.4487361900
   41.8899993900    21.9099998500     0.8600000100
   15.9099998500    21.0499992400     2.1099999000
   65.1818695100    33.4054641700     8.3643436400
   47.5640831000    27.2533721900     6.9628343600
   49.6727447500    28.7306194300     6.1699876800
   45.3662262000    28.5639572100     6.0979976700
   51.2902145400    26.8631019600     5.1043200500
   43.7573394800    26.6714458500     4.9865555800
   42.9599990800    24.3899993900     1.3099999400
   57.1604499800    19.0632743800     8.3303813900
   12.1834926600    17.7697734800     8.5962505300
   19.2600002300    26.9000015300     2.4200000800
   52.1899986300    24.9900016800     1.0700000500
   14.5242691000    19.1744060500     8.4094715100
   52.2700042700    27.2399997700     2.6300001100
   47.5899963400    31.6300010700     1.0399999600
   21.4700012200    31.3299980200     2.2799999700
   49.8199996900    31.2400016800     2.5000000000
   59.3361358600    23.0980014800     8.2696046800
   53.5094986000    17.0321350100     6.7755656200
   55.6981430100    18.4688530000     6.1247081800
   54.8566131600    20.7512664800     4.9305648800
   53.6103477500    14.4167699800     6.0910196300
   51.2788047800    14.1263027200     4.7228760700
   48.6600036600    14.3599996600     1.4600000400
   51.0729217500    29.3448638900     8.4120512000
   62.8100013700    33.5999984700     2.2500000000
   51.0055542000    32.0395927400     8.4989824300
    9.6599998500    14.7599992800     0.7400000100
   20.1799984000    33.7200012200     2.4200000800
   55.8505668600    29.4340992000     8.4262476000
   10.6700000800    16.7399997700     2.3099999400
   53.5799980200    20.6999988600     1.0299999700
   55.8499984700    21.1199989300     2.3999998600
   53.3899993900    33.3353996300     8.2755537000
   57.4177627600    32.9032669100     6.4516534800
   55.8199615500    32.1352653500     8.4685192100
   58.0968399000    30.7523384100     5.0243454000
   15.7851686500    22.6986427300     6.1769051600
   14.4019451100    21.8980312300     8.3735771200
   14.3319664000    24.3314952900     4.6192770000
   12.0537996300    20.5100021400     0.0600004200
   57.4100036600    19.1399993900     1.3199999300
   14.1300001100    19.1399993900     1.2200000300
   53.7099990800    30.5800018300     0.4400000000
   51.3399963400    29.4199981700     1.2200000300
   53.6899986300    33.3499984700     1.1699999600
   21.6288871800    32.9193954500     6.4888377200
    8.6366071700    14.2539215100     4.9050087900
   45.9750137300    30.8976154300     4.8254828500
   17.7638397200    26.3096733100     6.3355798700
   15.5355129200    26.7374038700     4.8662643400
   17.9752502400    27.8430137600     8.5464572900
   61.6504631000    32.9998016400     6.3101234400
   62.8859100300    31.9423122400     8.4706296900
   60.7904472400    30.8443851500     4.8992204700
   18.2099990800    30.6399993900     0.5600000000
   20.4599990800    29.0499992400     1.2300000200
   65.2600021400    33.2500000000     1.0199999800
   49.6810531600    32.9558067300     6.3310823400
   39.2523117100    14.2114868200     4.8482823400
   48.6586914100    30.9031696300     4.9018707300
   12.1332407000    16.2996940600     6.3256111100
   37.9772110000    16.6077461200     4.7137970900
    9.8792591100    16.6465263400     4.8791713700
   55.5822448700    22.7909679400     6.5156402600
   57.0276489300    24.2919693000     4.8173375100
   56.9785156200    21.7702693900     8.5787429800
   53.5879211400    26.6036129000     6.4872083700
   55.8140907300    26.6943969700     4.9656519900
   53.4830398600    28.1328926100     8.7005100300
   23.6999988600    34.0100021400    -0.3000030500
   11.9830656100    13.7562799500     7.2106599800
   41.6191482500    16.9525814100     9.5546102500
   53.6211586000    17.0501442000     9.4399061200
   47.4714050300    27.1880703000     9.6521930700
   53.4000854500    24.0946235700     7.3948946000
   41.7561645500    23.7559146900     7.0827078800
   47.6983833300    13.7929573100     7.3113560700
   23.7372322100    34.1085090600     9.8930664100
   21.4559536000    32.8339309700    10.5830459600
   46.1612701400    30.7065753900    11.8871879600
   48.8362731900    30.6245517700    12.1582412700
   49.6302490200    32.7738151600    10.7134008400
    8.2625370000    14.1474971800    12.0197467800
    9.7449245500    16.4060554500    11.9339942900
   12.1727371200    16.1337719000    10.7553863500
   38.2537155200    16.4095401800    11.9523963900
   39.5266494800    14.0356788600    11.7194089900
   39.3935318000    15.4905471800    15.5748577100
   38.1653671300    17.5499095900    14.3954925500
   47.3852462800    29.7120113400    16.1510486600
   49.6651077300    29.9923362700    14.6694755600
   45.3658638000    30.2511806500    14.4124031100
   45.0484542800    21.8467826800    15.6754922900
   47.4684371900    17.9262485500    15.6882715200
   43.8156929000    18.1465835600    10.5243349100
   47.7131118800    16.1879959100    10.6163158400
   45.3424034100    16.4306049300    11.9351587300
   43.9563026400    22.5354366300    10.7024183300
   43.0445098900    20.3092937500    11.9474010500
   51.5885238600    18.2848129300    10.6634101900
   50.0081443800    16.5903110500    12.0266838100
   52.2392997700    20.4199829100    12.1922702800
   51.3350219700    22.6439113600    10.9421424900
   47.5724983200    24.6170826000    10.4134349800
   45.3848114000    24.4519634200    11.9455089600
   49.7134437600    24.4858322100    12.0575723600
   52.2770462000    13.9290514000    14.4835624700
   44.2681922900    27.7907791100    14.4463501000
   61.5684738200    28.3398227700    10.4772958800
   15.6030941000    26.6633720400    12.0684738200
   60.8365211500    30.4527835800    11.9739332200
   45.3170700100    28.4916191100    10.5829820600
   43.8966903700    26.7070579500    12.0045652400
   53.4771804800    14.5843172100    10.4571542700
   51.2961387600    14.2123813600    11.9900236100
   39.5655517600    19.8278217300    14.6616020200
   55.7666854900    18.2487258900    10.4945468900
   54.9264106800    20.2402896900    12.1377067600
   39.5509872400    18.3123931900    10.5726699800
   40.3419838000    20.3768692000    12.1095466600
   59.4602279700    24.5701389300    10.5385675400
   57.1183395400    24.3939781200    11.8682489400
   14.3029804200    24.3040370900    12.0523309700
   51.0671386700    27.6637535100    14.6462936400
   49.5756988500    28.6143493700    10.5225696600
   50.9230880700    26.8875598900    12.0783147800
   57.1593818700    28.5018177000    10.5744161600
   55.8109512300    26.7479515100    12.1079444900
   58.1469726600    30.5138874100    12.0725421900
   41.8335342400    14.4282779700    10.4216976200
   44.0640564000    14.0453100200    11.9065513600
   45.1004753100    25.7291297900    15.8932390200
   46.3233604400    23.8580703700    14.4022798500
   50.8445587200    15.7137432100    15.8560447700
   49.8836364700    17.8033676100    14.4370632200
   59.5485534700    34.1020240800     9.9798851000
   57.3636474600    32.6903953600    10.6303119700
   61.7101593000    32.7383079500    10.8170976600
   41.6849098200    23.6596183800     9.7701091800
   15.7603654900    22.4930877700    10.6794261900
   17.9042396500    26.1869278000    10.6980438200
   49.5183525100    26.2089347800    16.2636203800
   48.9866561900    24.1167545300    14.6306381200
   53.4562339800    24.0778713200    10.0902576400
   55.5446701000    22.5178756700    10.7557926200
   53.3736343400    26.6402130100    10.9720268200
   43.4987106300    15.6377067600    15.9993839300
   45.1212730400    17.2685890200    14.4854145100
   41.8187942500    19.1216163600    16.0010356900
   43.9039001500    19.6911144300    14.4323654200
   59.3045425400    27.1259861000     9.7381439200
   41.3172378500    16.6527557400    17.1843299900
   47.0654296900    27.1599617000    17.1216754900
   12.2042064700    -1.9628739400     4.5093722300
   10.7016849500    -1.2055063200     5.0363693200
   12.7600002300    -0.1800012600     3.0999999000
   11.0200004600     0.1000022900     3.0700001700
   12.5839214300     2.0998716400     3.9290413900
   11.2032890300     1.6768837000     4.9520535500
   13.2468843500    -1.0339307800     6.3917021800
   11.7519359600    -0.2065658600     6.8265128100
   29.5699996900    39.1000022900     1.8799998800
   28.0299987800    38.6199989300     2.5999999000
   30.5249385800    38.2543449400     3.8135442700
   29.1148548100    37.2638969400     4.1940383900
   31.5000000000    36.3199996900     2.8799998800
   29.9799995400    35.4399986300     3.1099999000
   28.7400016800    37.5699996900     0.2099999900
   28.0699996900    36.4799995400     1.4300000700
   39.9499969500    36.5300025900     1.5800000400
   41.2699966400    35.6399993900     2.3399999100
   39.9399986300    38.1100006100     3.2300000200
   41.0533981300    37.1134262100     4.1632919300
   41.8100013700    39.5799980200     3.3000001900
   42.9799995400    38.2599983200     3.2300000200
   41.6399993900    37.1399993900     0.0100000000
   42.9300003100    36.8100013700     1.1699999600
   13.3199996900     5.5599999400     1.2699999800
   14.0799999200     6.7600002300     2.3099999400
   11.8099994700     5.0099997500     2.8999998600
   12.5879526100     6.1220192900     4.0258655500
   10.0399990100     6.5700001700     3.1299998800
   11.1399993900     7.9200000800     3.4200000800
   12.6100006100     7.5000000000     0.0800000100
   12.7199993100     8.5100002300     1.5199999800
   25.2500000000     8.0199995000     2.9200000800
   24.8217105900     6.6263837800     3.9136719700
   25.6200008400     6.7199997900     1.0899999100
   25.3699989300     5.2699999800     2.0599999400
   23.6499996200     5.8899998700     0.0100000000
   23.0399990100     5.1900000600     1.5099999900
   22.9300003100     8.4799995400     3.1099999000
   22.5300006900     6.7899999600     3.4099998500
   29.8338146200     8.6699466700     5.9822311400
   28.9562797500     8.3238296500     4.4900112200
   31.5951137500     9.3126382800     4.6454238900
   30.5900001500     9.4700002700     3.2100000400
   31.4596195200    11.6677475000     4.7723336200
   30.1255970000    11.6979656200     3.6169986700
   27.9578933700    10.1626033800     6.2000684700
   27.9795913700    10.5623722100     4.4796552700
   19.1942806200     8.6393442200     5.2380914700
   19.7571716300    10.1593380000     5.9346323000
   17.0855102500     8.9066114400     6.0321331000
   17.6364574400    10.2786016500     6.9941864000
   15.7793617200    10.6148252500     5.0123806000
   17.0358295400    11.8364028900     5.2402916000
   19.3199996900     9.8000001900     3.1900000600
   19.2549343100    11.3711509700     3.9991035500
   23.7065277100     1.7819190000     3.9301288100
   23.1800003100     0.2700000100     3.1900000600
   22.5985603300     1.2872393100     5.8524870900
   22.0618515000    -0.2635383600     5.2051124600
   23.8874645200    -0.1060581200     7.2844743700
   23.9337711300    -1.4110255200     6.0937347400
   25.8265457200     0.7392226500     3.8037128400
   25.1412944800    -0.8861541700     3.9101052300
   31.4320259100    10.9985914200    12.3932352100
   30.3666286500    10.6745996500    13.7599086800
   31.0583286300     8.9317359900    11.4403038000
   30.4245986900     8.4199600200    13.0091819800
   28.8105087300     8.3276519800    10.8531322500
   28.1553535500     8.9986867900    12.3510561000
   29.6390686000    12.2486896500    11.5183372500
   28.5138149300    11.5485973400    12.6845798500
   48.5846748400    39.2283477800    12.2568073300
   48.8032074000    40.4947509800    13.4666929200
   46.3359832800    39.3802566500    12.4716167400
   46.4510765100    40.7536315900    13.5672941200
   45.5083923300    40.9936370800    10.9587297400
   46.3199043300    42.3178329500    11.8030109400
   49.5756950400    40.8860054000    10.8660497700
   48.8592834500    42.2100029000    11.7926368700
   34.8768959000    42.4340400700    11.5663042100
   34.2642631500    41.9029388400    13.1320800800
   36.9491996800    42.4713096600    12.7687606800
   36.4071807900    41.1800079300    13.8440847400
   37.1674652100    40.8614158600    10.9059467300
   37.8525695800    40.0024185200    12.2918415100
   34.4036636400    40.3923263500    10.6615409900
   33.8566322300    39.7715721100    12.2213192000
   34.3077659600    34.3708457900    13.9624843600
   35.4352912900    33.3150405900    13.1138048200
   34.5974197400    33.1622657800    15.8709030200
   35.8433075000    32.1626396200    15.1290760000
   36.4208030700    34.0268707300    17.1150722500
   37.5817451500    33.5343856800    15.8822355300
   36.0240287800    35.9658546400    13.5311737100
   37.2869262700    34.7316627500    13.5842409100
   24.0440673800    18.5471515700     4.5093421900
   22.5415020000    19.3045120200     5.0362105400
   24.6000003800    20.3299999200     3.0999999000
   22.8600006100    20.6100006100     3.0700001700
   24.4239406600    22.6098747300     3.9290604600
   23.0432167100    22.1869125400     4.9519701000
   23.5915756200    20.3034896900     6.8264441500
   25.0865173300    19.4760723100     6.3917751300
   17.7199993100    18.5799999200     1.8799998800
   16.1800003100    18.0999984700     2.5999999000
   18.6749210400    17.7343502000     3.8135700200
   17.2648353600    16.7438964800     4.1940212200
   19.6499996200    15.8000001900     2.8799998800
   18.1299991600    14.9200000800     3.1099999000
   16.2199993100    15.9599990800     1.4300000700
   16.8899993900    17.0500011400     0.2099999900
   28.0999984700    16.0100002300     1.5800000400
   29.4199981700    15.1199998900     2.3399999100
   28.0900001500    17.5900001500     3.2300000200
   29.2034416200    16.5934677100     4.1633014700
   29.9600009900    19.0599994700     3.3000001900
   31.1299991600    17.7399997700     3.2300000200
   31.0799999200    16.2899990100     1.1699999600
   29.7900009200    16.6199989300     0.0100000000
   25.1599998500    26.0700016000     1.2699999800
   25.9200000800    27.2700004600     2.3099999400
   23.6499996200    25.5200004600     2.8999998600
   24.4279556300    26.6320152300     4.0258650800
   21.8799991600    27.0799999200     3.1299998800
   22.9800014500    28.4300003100     3.4200000800
   24.5600013700    29.0200004600     1.5199999800
   24.4499988600    28.0100021400     0.0800000100
   37.0900001500    28.5299987800     2.9200000800
   36.6617126500    27.1363906900     3.9136753100
   37.4599990800    27.2299995400     1.0899999100
   37.2099990800    25.7800006900     2.0599999400
   35.4900016800    26.4000015300     0.0100000000
   34.8799972500    25.6999988600     1.5099999900
   34.3699989300    27.2999992400     3.4099998500
   34.7700004600    28.9899997700     3.1099999000
   41.6741905200    29.1805095700     5.9823427200
   40.7964286800    28.8343963600     4.4902648900
   43.4353065500    29.8231697100     4.6453590400
   42.4300003100    29.9799995400     3.2100000400
   43.2998199500    32.1786651600     4.7721800800
   41.9656562800    32.2085037200     3.6169722100
   39.8198318500    31.0729255700     4.4799222900
   39.7983131400    30.6733055100     6.2003655400
   31.0341415400    29.1494541200     5.2381949400
   31.5973396300    30.6693859100     5.9346447000
   28.9254188500    29.4172115300     6.0322136900
   29.4766693100    30.7891120900     6.9942646000
   27.6196575200    31.1256885500     5.0124797800
   28.8763847400    32.3470649700     5.2403636000
   31.0952873200    31.8812084200     3.9990754100
   31.1599998500    30.3099994700     3.1900000600
   35.5467338600    22.2917575800     3.9302835500
   35.0200004600    20.7800006900     3.1900000600
   34.4386367800    21.7971057900     5.8525447800
   33.9017791700    20.2464008300     5.2051181800
   35.7272872900    20.4035148600     7.2845511400
   35.7735481300    19.0987052900     6.0936527300
   36.9813346900    19.6235790300     3.9102103700
   37.6667442300    21.2488975500     3.8039925100
   43.2723083500    31.5096588100    12.3926458400
   42.2065353400    31.1862106300    13.7591600400
   42.8983497600    29.4425354000    11.4401493100
   42.2646675100    28.9313240100    13.0092067700
   40.6505127000    28.8383522000    10.8533020000
   39.9954338100    29.5099754300    12.3509893400
   40.3541984600    32.0603675800    12.6832599600
   41.4795303300    32.7598266600    11.5166645100
   36.7353973400    18.7079296100    12.2571926100
   36.9541206400    19.9743747700    13.4669647200
   34.4867591900    18.8603954300    12.4716463100
   34.6019325300    20.2338123300    13.5671958900
   33.6597023000    20.4736232800    10.9584531800
   34.4711608900    21.7978210400    11.8027362800
   37.0107688900    21.6895217900    11.7927665700
   37.7271308900    20.3652477300    10.8664779700
   23.0269966100    21.9142761200    11.5662813200
   22.4143962900    21.3832931500    13.1321134600
   25.0992946600    21.9519500700    12.7687473300
   24.5574188200    20.6607055700    13.8442306500
   25.3176002500    20.3417663600    10.9060802500
   26.0029716500    19.4831428500    12.2920904200
   22.0069351200    19.2518577600    12.2215280500
   22.5541515400    19.8723602300    10.6617212300
   28.5126876800    22.7048912000    15.8631238900
   28.2004566200    24.4100112900    16.1781005900
   28.8590202300    23.1678047200    13.6595401800
   28.7526989000    24.9077816000    13.9276142100
   31.1625213600    23.6403293600    13.3208484600
   31.0726375600    25.1257991800    14.2727108000
   30.5068817100    24.8232917800    16.7390174900
   30.3593711900    23.1531047800    17.3068771400
   22.4581165300    13.8523273500    13.9626455300
   23.5852050800    12.7963590600    13.1135387400
   22.7483081800    12.6433830300    15.8707723600
   23.9939575200    11.6440286600    15.1281700100
   24.5717315700    13.5077190400    17.1145973200
   25.7324886300    13.0150032000    15.8816452000
   25.4372940100    14.2124471700    13.5835323300
   24.1746349300    15.4469528200    13.5308551800
   35.8934021000    -1.9629073100     4.5095272100
   34.3906364400    -1.2054991700     5.0356478700
   36.4500007600    -0.1800012600     3.0999999000
   34.7100029000     0.1000022900     3.0700001700
   36.2741165200     2.0997428900     3.9291782400
   34.8929557800     1.6770458200     4.9516015100
   36.9347229000    -1.0341286700     6.3923273100
   35.4399032600    -0.2062702200     6.8262867900
   53.2500000000    39.1000022900     1.8799998800
   51.7099990800    38.6199989300     2.5999999000
   54.2049255400    38.2543602000     3.8135466600
   52.7948913600    37.2638778700     4.1940488800
   55.1800003100    36.3199996900     2.8799998800
   53.6600036600    35.4399986300     3.1099999000
   52.4200019800    37.5699996900     0.2099999900
   51.7500000000    36.4799995400     1.4300000700
   63.6299972500    36.5300025900     1.5800000400
   64.9499969500    35.6399993900     2.3399999100
   63.6199989300    38.1100006100     3.2300000200
   64.7334137000    37.1134605400     4.1633105300
   65.4899978600    39.5799980200     3.3000001900
   66.6599960300    38.2599983200     3.2300000200
   65.3199996900    37.1399993900     0.0100000000
   66.6100006100    36.8100013700     1.1699999600
   37.0099983200     5.5599999400     1.2699999800
   37.7700004600     6.7600002300     2.3099999400
   35.5000000000     5.0099997500     2.8999998600
   36.2779541000     6.1220207200     4.0258650800
   33.7299995400     6.5700001700     3.1299998800
   34.8300018300     7.9200000800     3.4200000800
   36.3000030500     7.5000000000     0.0800000100
   36.4099998500     8.5100002300     1.5199999800
   48.9400024400     8.0199995000     2.9200000800
   48.5115890500     6.6263766300     3.9136810300
   49.3100013700     6.7199997900     1.0899999100
   49.0600013700     5.2699999800     2.0599999400
   47.3400039700     5.8899998700     0.0100000000
   46.7299995400     5.1900000600     1.5099999900
   46.6200027500     8.4799995400     3.1099999000
   46.2200012200     6.7899999600     3.4099998500
    6.1442670800     8.6699304600     5.9823112500
    5.2665672300     8.3239212000     4.4901371000
    7.9054780000     9.3124771100     4.6451749800
    6.9000001000     9.4700002700     3.2100000400
    7.7701902400    11.6676788300     4.7722191800
    6.4359684000    11.6979808800     3.6171169300
    4.2684049600    10.1627912500     6.2001080500
    4.2903704600    10.5626163500     4.4797177300
   42.8842620800     8.6393508900     5.2380933800
   43.4471511800    10.1593418100     5.9346394500
   40.7754936200     8.9066143000     6.0321278600
   41.3264389000    10.2786054600     6.9941844900
   39.4693527200    10.6148328800     5.0123710600
   40.7258224500    11.8364086200     5.2402882600
   43.0100021400     9.8000001900     3.1900000600
   42.9449310300    11.3711528800     3.9991054500
    0.0169229500     1.7815885500     3.9304277900
   -0.5100011800     0.2700000100     3.1900000600
   -1.0909938800     1.2869296100     5.8526878400
   -1.6281557100    -0.2637147900     5.2052812600
    0.1974248900    -0.1068306000     7.2845883400
    0.2435541200    -1.4116120300     6.0936489100
    2.1368408200     0.7387335300     3.8040556900
    1.4514207800    -0.8865928600     3.9100613600
    7.7424593000    10.9986600900    12.3934154500
    6.6769390100    10.6747446100    13.7600135800
    7.3690204600     8.9316806800    11.4406786000
    6.7350549700     8.4200201000    13.0095186200
    5.1214461300     8.3274326300    10.8531770700
    4.4659462000     8.9985170400    12.3509302100
    5.9495253600    12.2485923800    11.5182218600
    4.8241801300    11.5484542800    12.6843633700
   24.8953476000    39.2273941000    12.2574052800
   25.1139278400    40.4938964800    13.4671392400
   22.6466522200    39.3795700100    12.4720945400
   22.7616958600    40.7532730100    13.5672798200
   21.8194694500    40.9922103900    10.9584598500
   22.6305751800    42.3168144200    11.8025598500
   25.8869018600    40.8847503700    10.8666791900
   25.1702842700    42.2089996300    11.7928457300
   58.5578155500    42.4334945700    11.5658521700
   57.9448471100    41.9029274000    13.1316556900
   60.6296310400    42.4720535300    12.7687063200
   60.0881538400    41.1807022100    13.8442878700
   60.8483505200    40.8620071400    10.9060154000
   61.5342140200    40.0035858200    12.2918901400
   58.0847930900    40.3914871200    10.6618633300
   57.5381851200    39.7709503200    12.2218408600
   47.7340660100    18.5471553800     4.5093460100
   46.2314949000    19.3045177500     5.0362057700
   48.2900009200    20.3299999200     3.0999999000
   46.5500030500    20.6100006100     3.0700001700
   48.1139335600    22.6098785400     3.9290618900
   46.7332077000    22.1869182600     4.9519600900
   48.7764968900    19.4760818500     6.3917808500
   47.2815551800    20.3034896900     6.8264465300
   41.4099960300    18.5799999200     1.8799998800
   39.8699989300    18.0999984700     2.5999999000
   42.3649368300    17.7343444800     3.8135600100
   40.9548492400    16.7439003000     4.1940302800
   43.3400001500    15.8000001900     2.8799998800
   41.8199996900    14.9200000800     3.1099999000
   40.5800018300    17.0500011400     0.2099999900
   39.9099998500    15.9599990800     1.4300000700
   51.7900009200    16.0100002300     1.5800000400
   53.1100006100    15.1199998900     2.3399999100
   51.7799987800    17.5900001500     3.2300000200
   52.8934402500    16.5934658100     4.1632995600
   53.6499977100    19.0599994700     3.3000001900
   54.8199996900    17.7399997700     3.2300000200
   53.4799995400    16.6199989300     0.0100000000
   54.7700042700    16.2899990100     1.1699999600
   48.8500022900    26.0700016000     1.2699999800
   49.6100006100    27.2700004600     2.3099999400
   47.3400039700    25.5200004600     2.8999998600
   48.1179504400    26.6320133200     4.0258669900
   45.5699996900    27.0799999200     3.1299998800
   46.6699981700    28.4300003100     3.4200000800
   48.1399993900    28.0100021400     0.0800000100
   48.2500000000    29.0200004600     1.5199999800
   60.7799987800    28.5299987800     2.9200000800
   60.3515930200    27.1363811500     3.9136838900
   61.1499977100    27.2299995400     1.0899999100
   60.9000015300    25.7800006900     2.0599999400
   59.1800003100    26.4000015300     0.0100000000
   58.5699996900    25.6999988600     1.5099999900
   58.4600029000    28.9899997700     3.1099999000
   58.0600013700    27.2999992400     3.4099998500
   17.9844856300    29.1805763200     5.9824299800
   17.1066055300    28.8345451400     4.4903821900
   19.7456016500    29.8229789700     4.6451587700
   18.7399997700    29.9799995400     3.2100000400
   19.6104106900    32.1785392800     4.7720861400
   18.2761154200    32.2085037200     3.6170318100
   16.1086883500    30.6736602800     6.2003068900
   16.1305351300    31.0732669800     4.4798908200
   54.7239837600    29.1495170600     5.2382297500
   55.2872390700    30.6694488500     5.9346208600
   52.6153259300    29.4173545800     6.0323019000
   53.1665611300    30.7893657700     6.9941926000
   51.3095054600    31.1256046300     5.0123233800
   52.5660705600    32.3471412700     5.2400894200
   54.8500022900    30.3099994700     3.1900000600
   54.7851753200    31.8812198600     3.9990160500
   11.8570842700    22.2917003600     3.9301638600
   11.3299999200    20.7800006900     3.1900000600
   10.7493219400    21.7971534700     5.8525986700
   10.2123565700    20.2464103700     5.2052979500
   12.0381622300    20.4036598200     7.2844510100
   12.0841169400    19.0987262700     6.0936708500
   13.9769477800    21.2487449600     3.8035440400
   13.2915058100    19.6234397900     3.9099118700
   35.1196136500    12.2340164200    15.8670101200
   33.8344879200    13.3807296800    15.5017833700
   35.9167633100    12.4237804400    13.7392053600
   34.7645149200    13.6983003600    13.3443441400
   37.4890441900    14.1949949300    13.6479082100
   36.2494087200    15.4097538000    13.9727001200
   35.7532882700    14.0020713800    17.3513031000
   35.1241912800    15.2446479800    16.2654590600
   19.5824947400    31.5099525500    12.3928279900
   18.5168418900    31.1863994600    13.7594108600
   19.2089042700    29.4427261400    11.4405212400
   18.5750045800    28.9315128300    13.0095005000
   16.9613418600    28.8384227800    10.8532581300
   16.3059063000    29.5097827900    12.3508968400
   17.7895145400    32.7600174000    11.5170679100
   16.6642799400    32.0602569600    12.6835479700
   13.0459785500    18.7077980000    12.2572469700
   13.2646083800    19.9741783100    13.4671287500
   10.7973251300    18.8603363000    12.4715232800
   10.9124870300    20.2337646500    13.5670700100
    9.9706773800    20.4735107400    10.9581270200
   10.7819156600    21.7977123300    11.8026342400
   14.0379381200    20.3651981400    10.8667297400
   13.3214397400    21.6894493100    11.7929897300
   46.7169761700    21.9142913800    11.5662841800
   46.1043853800    21.3833026900    13.1321220400
   48.7892837500    21.9519519800    12.7687416100
   48.2474098200    20.6607093800    13.8442268400
   49.0075836200    20.3417606400    10.9060783400
   49.6929321300    19.4831333200    12.2920980500
   46.2441291800    19.8723716700    10.6617183700
   45.6969032300    19.2518730200    12.2215271000
   40.4560546900    22.7003688800    16.2362918900
   40.0127754200    24.1427879300    15.3380479800
   41.7156295800    21.8398246800    14.5025730100
   40.8402252200    22.9558544200    13.4582729300
   43.5264511100    23.1606750500    13.6097564700
   42.5824432400    24.6533126800    13.7012777300
   41.8028450000    25.3515338900    16.1333637200
   42.0528068500    24.0710029600    17.3193435700
   46.1480712900    13.8523111300    13.9626293200
   47.2751998900    12.7963657400    13.1135463700
   46.4382476800    12.6433582300    15.8707599600
   47.6839523300    11.6440544100    15.1281852700
   48.2616119400    13.5077590900    17.1146354700
   49.4224014300    13.0151081100    15.8817024200
   47.8645858800    15.4469566300    13.5308437300
   49.1272430400    14.2124595600    13.5836277000
   11.7509794200    -1.0170221300     4.8061528200
   11.8900508900     0.0346660600     3.7208833700
   12.1321506500     1.3034343700     4.5193376500
   12.4549150500    -0.3922557800     6.0131654700
   29.0000000000    38.2500000000     2.2699999800
   29.7799987800    37.5799980200     3.3899998700
   30.4200000800    36.3600006100     2.7200002700
   28.8899993900    37.1599998500     1.2100000400
   40.9399986300    36.6300010700     2.0299999700
   40.9000015300    37.5999984700     3.1999998100
   42.0000000000    38.5999984700     2.8699998900
   41.9300003100    37.2600021400     1.0499999500
   13.1299991600     6.4200000800     1.9200000800
   12.1500005700     6.0399999600     3.0299999700
   10.9899997700     7.0099997500     2.8400001500
   12.4100008000     7.5300002100     1.1499999800
   24.6300010700     7.1199998900     2.9600000400
   24.9300003100     6.2199997900     1.7699999800
   23.5700016000     6.0399999600     1.0899999100
   23.1500015300     7.4600000400     2.8099999400
   29.4801139800     9.0994682300     5.0441699000
   30.6459655800     9.6960372900     4.2743730500
   30.5120697000    11.2017307300     4.5078940400
   28.6033363300    10.3068599700     5.3367729200
   18.9632072400     9.6978778800     5.3476233500
   17.5926570900     9.8708448400     5.9842205000
   16.8542137100    10.7848796800     5.0148906700
   18.8314609500    10.3667306900     3.9815974200
   23.6604614300     0.7011838000     4.0698666600
   22.9324436200     0.3712621600     5.3660821900
   23.9862937900    -0.3285169600     6.2210092500
   25.0614757500     0.1368274500     4.2853169400
   30.4624366800    10.5877418500    12.6768722500
   30.3155365000     9.1486492200    12.2077407800
   28.9273071300     9.1200246800    11.5894498800
   29.3146629300    11.3191976500    11.9795370100
   48.3068084700    40.2461624100    12.5286083200
   46.7924270600    40.3592758200    12.6100912100
   46.4295501700    41.2890243500    11.4560737600
   48.6861496000    41.2040138200    11.4066009500
   34.9578437800    41.6580772400    12.3288250000
   36.3894615200    41.5372619600    12.8144149800
   36.9487457300    40.4630317700    11.8980360000
   34.6698074300    40.2880783100    11.7122135200
   35.3136291500    33.9490127600    13.9943838100
   35.5234794600    33.1914062500    15.2983198200
   36.5989189100    33.9844665500    16.0392265300
   36.3548736600    35.0620994600    14.0463314100
   23.5908241300    19.4929962200     4.8060970300
   23.7300338700    20.5446777300     3.7208604800
   23.9721031200    21.8134479500     4.5193185800
   24.2946281400    20.1177768700     6.0131683300
   17.1499996200    17.7299995400     2.2699999800
   17.9300003100    17.0599994700     3.3899998700
   18.5699996900    15.8400001500     2.7200002700
   17.0400009200    16.6399993900     1.2100000400
   29.0900001500    16.1099987000     2.0299999700
   29.0499992400    17.0799999200     3.1999998100
   30.1500015300    18.0799999200     2.8699998900
   30.0799980200    16.7399997700     1.0499999500
   24.9699993100    26.9300003100     1.9200000800
   23.9899997700    26.5499992400     3.0299999700
   22.8299999200    27.5200004600     2.8400001500
   24.2500000000    28.0399990100     1.1499999800
   36.4700012200    27.6300010700     2.9600000400
   36.7700004600    26.7300014500     1.7699999800
   35.4099998500    26.5499992400     1.0899999100
   34.9900016800    27.9699993100     2.8099999400
   41.3203811600    29.6100406600     5.0443277400
   42.4861450200    30.2065353400     4.2743187000
   42.3523292500    31.7123451200     4.5078201300
   40.4436836200    30.8174896200     5.3369898800
   30.8032779700    30.2080421400     5.3476753200
   29.4327812200    30.3813362100     5.9843034700
   28.6945419300    31.2955474900     5.0149769800
   30.6716327700    30.8768577600     3.9816174500
   35.5005493200    21.2110157000     4.0699334100
   34.7724380500    20.8811111500     5.3661150900
   35.8261833200    20.1811809500     6.2210617100
   36.9015464800    20.6465435000     4.2854681000
   42.3025741600    31.0990562400    12.6761627200
   42.1556015000    29.6597785900    12.2075386000
   40.7673606900    29.6310253100    11.5893039700
   41.1550293000    31.8305034600    11.9783420600
   36.4577560400    19.7258606000    12.5288353000
   34.9433784500    19.8393249500    12.6100873900
   34.5808181800    20.7689781200    11.4559078200
   36.8375091600    20.6835212700    11.4067974100
   23.1080226900    21.1384277300    12.3289022400
   24.5396595000    21.0178413400    12.8145179700
   25.0990505200    19.9435596500    11.8982801400
   22.8201522800    19.7683277100    11.7124557500
   28.9208107000    23.7106685600    15.7496433300
   29.2216835000    23.9879913300    14.2807588600
   30.7470626800    24.0841598500    14.2259807600
   30.2848987600    23.7983036000    16.4298648800
   23.4639263200    13.4303379100    13.9941577900
   23.6741333000    12.6726379400    15.2979040100
   24.7497921000    13.4653511000    16.0387344400
   24.5054435700    14.5431194300    14.0458869900
   35.4400787400    -1.0170221300     4.8059973700
   35.5799560500     0.0346374500     3.7208244800
   35.8219299300     1.3034105300     4.5192966500
   36.1432952900    -0.3921937900     6.0133438100
   52.6800003100    38.2500000000     2.2699999800
   53.4600029000    37.5799980200     3.3899998700
   54.0999984700    36.3600006100     2.7200002700
   52.5699996900    37.1599998500     1.2100000400
   64.6199951200    36.6300010700     2.0299999700
   64.5800018300    37.5999984700     3.1999998100
   65.6800003100    38.5999984700     2.8699998900
   65.6100006100    37.2600021400     1.0499999500
   36.8199996900     6.4200000800     1.9200000800
   35.8400001500     6.0399999600     3.0299999700
   34.6800003100     7.0099997500     2.8400001500
   36.0999984700     7.5300002100     1.1499999800
   48.3199996900     7.1199998900     2.9600000400
   48.6199989300     6.2199997900     1.7699999800
   47.2599983200     6.0399999600     1.0899999100
   46.8400001500     7.4600000400     2.8099999400
    5.7905330700     9.0994882600     5.0442800500
    6.9562988300     9.6959991500     4.2743496900
    6.8225812900    11.2017078400     4.5079293300
    4.9139499700    10.3069839500     5.3368973700
   42.6531944300     9.6978836100     5.3476243000
   41.2826385500     9.8708496100     5.9842176400
   40.5442047100    10.7848854100     5.0148844700
   42.5214576700    10.3667316400     3.9815955200
   -0.0293445600     0.7008402300     4.0699873000
   -0.7573986100     0.3709046500     5.3661975900
    0.2963018400    -0.3291416200     6.2210893600
    1.3716507000     0.1363177400     4.2854633300
    6.7728686300    10.5877790500    12.6769962300
    6.6261167500     9.1486330000    12.2079906500
    5.2380209000     9.1198673200    11.5894594200
    5.6251478200    11.3190927500    11.9794454600
   24.6175861400    40.2453002900    12.5290212600
   23.1031875600    40.3585853600    12.6102714500
   22.7404899600    41.2879371600    11.4558973300
   24.9972133600    41.2029457100    11.4069376000
   58.6387252800    41.6578865100    12.3287210500
   60.0703201300    41.5377426100    12.8145275100
   60.6300354000    40.4636573800    11.8982143400
   58.3511352500    40.2876205400    11.7125263200
   47.2808151200    19.4930000300     4.8060960800
   47.4200363200    20.5446796400     3.7208604800
   47.6620941200    21.8134517700     4.5193176300
   47.9846153300    20.1177825900     6.0131702400
   40.8400001500    17.7299995400     2.2699999800
   41.6200027500    17.0599994700     3.3899998700
   42.2599983200    15.8400001500     2.7200002700
   40.7299995400    16.6399993900     1.2100000400
   52.7799987800    16.1099987000     2.0299999700
   52.7400016800    17.0799999200     3.1999998100
   53.8399963400    18.0799999200     2.8699998900
   53.7699966400    16.7399997700     1.0499999500
   48.6600036600    26.9300003100     1.9200000800
   47.6800003100    26.5499992400     3.0299999700
   46.5200004600    27.5200004600     2.8400001500
   47.9400024400    28.0399990100     1.1499999800
   60.1599960300    27.6300010700     2.9600000400
   60.4599990800    26.7300014500     1.7699999800
   59.0999984700    26.5499992400     1.0899999100
   58.6800003100    27.9699993100     2.8099999400
   17.6306877100    29.6101284000     5.0444212000
   18.7964286800    30.2064914700     4.2743039100
   18.6628437000    31.7123203300     4.5078358700
   16.7541980700    30.8177223200     5.3370370900
   54.4931602500    30.2081184400     5.3476648300
   53.1226654100    30.3814907100     5.9842729600
   52.3843765300    31.2955646500     5.0148344000
   54.3615531900    30.8768634800     3.9815735800
   11.8108367900    21.2109642000     4.0698242200
   11.0830068600    20.8811359400     5.3661556200
   12.1368484500    20.1812152900     6.2209692000
   13.2118282300    20.6464195300     4.2851452800
   34.9141120900    13.2310695600    15.4772615400
   35.5041198700    13.3748960500    14.0791406600
   36.6089592000    14.4166326500    14.2523098000
   35.6470413200    14.2854766800    16.3034515400
   18.6128234900    31.0992527000    12.6764087700
   18.4660358400    29.6599483500    12.2077961000
   17.0779151900    29.6310539200    11.5893440200
   17.4651699100    31.8305816700    11.9786338800
   12.7683658600    19.7257270800    12.5289173100
   11.2540006600    19.8392295800    12.6100072900
   10.8916511500    20.7688884700    11.4557886100
   13.1482706100    20.6834487900    11.4069747900
   46.7980041500    21.1384391800    12.3289032000
   48.2296371500    21.0178489700    12.8145160700
   48.7890205400    19.9435615500    11.8982791900
   46.5101242100    19.7683429700    11.7124557500
   40.8482170100    23.4843673700    15.5855388600
   41.4855270400    22.8936996500    14.3364448500
   42.7714157100    23.6938877100    14.1900014900
   41.9759292600    24.2784042400    16.2504158000
   47.1538848900    13.4303398100    13.9941616100
   47.3640823400    12.6726493800    15.2979145100
   48.4396820100    13.4654092800    16.0387764000
   48.1953773500    14.5431423200    14.0459194200
   12.9906177500     0.8382368100     5.5442209200
   30.1300010700    36.4799995400     1.3300000400
   41.9700012200    38.6199989300     1.4499999300
   11.0399999600     7.3000001900     1.4499999300
   22.8999996200     7.2500000000     1.4300000700
   29.5636558500    11.3210640000     5.5552015300
   17.4337577800    10.4457712200     3.7696495100
   25.2086162600     0.1554642500     5.6937928200
   28.8398742700    10.4039497400    11.0046491600
   47.5377578700    41.1922493000    10.5793972000
   35.8742065400    39.5429267900    11.8391561500
   36.5461692800    35.2725563000    15.4404592500
   24.8304634100    21.3482265500     5.5442662200
   18.2799987800    15.9599990800     1.3300000400
   30.1200008400    18.0999984700     1.4499999300
   22.8800010700    27.8099994700     1.4499999300
   34.7399978600    27.7600002300     1.4300000700
   41.4040069600    31.8317527800     5.5552272800
   29.2739448500    30.9561939200     3.7697305700
   37.0486030600    20.6650524100     5.6939668700
   40.6800117500    30.9147548700    11.0039863600
   35.6891937300    20.6719741800    10.5794391600
   24.0246086100    19.0233383200    11.8397159600
   31.1710376700    23.3996391300    15.3963375100
   24.6970939600    14.7534389500    15.4399890900
   36.6797790500     0.8380222300     5.5445718800
   53.8100013700    36.4799995400     1.3300000400
   65.6500015300    38.6199989300     1.4499999300
   34.7299995400     7.3000001900     1.4499999300
   46.5900001500     7.2500000000     1.4300000700
    5.8743472100    11.3210783000     5.5553765300
   41.1237525900    10.4457759900     3.7696445000
    1.5187501900     0.1546487100     5.6939725900
    5.1505889900    10.4037361100    11.0045537900
   23.8489513400    41.1911239600    10.5795135500
   59.5558853100    39.5430412300    11.8395528800
   48.5204467800    21.3482322700     5.5442743300
   41.9700012200    15.9599990800     1.3300000400
   53.8100013700    18.0999984700     1.4499999300
   46.5699996900    27.8099994700     1.4499999300
   58.4300003100    27.7600002300     1.4300000700
   17.7146453900    31.8318462400     5.5553216900
   52.9638633700    30.9561309800     3.7696411600
   13.3591728200    20.6649971000     5.6936125800
   36.8996734600    14.3829736700    15.6446781200
   16.9904060400    30.9148330700    11.0041532500
   12.0001030000    20.6719055200    10.5794487000
   47.7145729100    19.0233459500    11.8397226300
   43.1526260400    23.8868484500    15.5476455700
   48.3869552600    14.7534923600    15.4400262800
