Au Fe N  C  H                           
   1.00000000000000     
    17.3099740034466869    0.0000000000000000    0.0000000000000000
     0.0000000000000000   34.9787135269437783    0.0000000000000000
     0.0000000000000000    0.0000000000000000   50.0000000000000000
   Au   Fe   N    C    H 
   252     2    16    80    36
Selective dynamics
Direct
  0.0833333331241732  0.0238095237367304  0.0471117820000018   F   F   F
  0.2499999999502194  0.0238095237367304  0.0471117820000018   F   F   F
  0.4166666667762655  0.0238095237367304  0.0471117820000018   F   F   F
  0.5833333336023188  0.0238095237367304  0.0471117820000018   F   F   F
  0.7499999998506652  0.0238095237367304  0.0471117820000018   F   F   F
  0.9166666666767114  0.0238095237367304  0.0471117820000018   F   F   F
  0.0000000000000000  0.0952380952328014  0.0471117820000018   F   F   F
  0.1666666668260461  0.0952380952328014  0.0471117820000018   F   F   F
  0.3333333330743926  0.0952380952328014  0.0471117820000018   F   F   F
  0.4999999999004388  0.0952380952328014  0.0471117820000018   F   F   F
  0.6666666667264920  0.0952380952328014  0.0471117820000018   F   F   F
  0.8333333335525381  0.0952380952328014  0.0471117820000018   F   F   F
  0.0833333331241732  0.1666666667288794  0.0471117820000018   F   F   F
  0.2499999999502194  0.1666666667288794  0.0471117820000018   F   F   F
  0.4166666667762655  0.1666666667288794  0.0471117820000018   F   F   F
  0.5833333336023188  0.1666666667288794  0.0471117820000018   F   F   F
  0.7499999998506652  0.1666666667288794  0.0471117820000018   F   F   F
  0.9166666666767114  0.1666666667288794  0.0471117820000018   F   F   F
  0.0000000000000000  0.2380952382249504  0.0471117820000018   F   F   F
  0.1666666668260461  0.2380952382249504  0.0471117820000018   F   F   F
  0.3333333330743926  0.2380952382249504  0.0471117820000018   F   F   F
  0.4999999999004388  0.2380952382249504  0.0471117820000018   F   F   F
  0.6666666667264920  0.2380952382249504  0.0471117820000018   F   F   F
  0.8333333335525381  0.2380952382249504  0.0471117820000018   F   F   F
  0.0833333331241732  0.3095238094351345  0.0471117820000018   F   F   F
  0.2499999999502194  0.3095238094351345  0.0471117820000018   F   F   F
  0.4166666667762655  0.3095238094351345  0.0471117820000018   F   F   F
  0.5833333336023188  0.3095238094351345  0.0471117820000018   F   F   F
  0.7499999998506652  0.3095238094351345  0.0471117820000018   F   F   F
  0.9166666666767114  0.3095238094351345  0.0471117820000018   F   F   F
  0.0000000000000000  0.3809523809312125  0.0471117820000018   F   F   F
  0.1666666668260461  0.3809523809312125  0.0471117820000018   F   F   F
  0.3333333330743926  0.3809523809312125  0.0471117820000018   F   F   F
  0.4999999999004388  0.3809523809312125  0.0471117820000018   F   F   F
  0.6666666667264920  0.3809523809312125  0.0471117820000018   F   F   F
  0.8333333335525381  0.3809523809312125  0.0471117820000018   F   F   F
  0.0833333331241732  0.4523809524272835  0.0471117820000018   F   F   F
  0.2499999999502194  0.4523809524272835  0.0471117820000018   F   F   F
  0.4166666667762655  0.4523809524272835  0.0471117820000018   F   F   F
  0.5833333336023188  0.4523809524272835  0.0471117820000018   F   F   F
  0.7499999998506652  0.4523809524272835  0.0471117820000018   F   F   F
  0.9166666666767114  0.4523809524272835  0.0471117820000018   F   F   F
  0.0000000000000000  0.5238095239233616  0.0471117820000018   F   F   F
  0.1666666668260461  0.5238095239233616  0.0471117820000018   F   F   F
  0.3333333330743926  0.5238095239233616  0.0471117820000018   F   F   F
  0.4999999999004388  0.5238095239233616  0.0471117820000018   F   F   F
  0.6666666667264920  0.5238095239233616  0.0471117820000018   F   F   F
  0.8333333335525381  0.5238095239233616  0.0471117820000018   F   F   F
  0.0833333331241732  0.5952380951335456  0.0471117820000018   F   F   F
  0.2499999999502194  0.5952380951335456  0.0471117820000018   F   F   F
  0.4166666667762655  0.5952380951335456  0.0471117820000018   F   F   F
  0.5833333336023188  0.5952380951335456  0.0471117820000018   F   F   F
  0.7499999998506652  0.5952380951335456  0.0471117820000018   F   F   F
  0.9166666666767114  0.5952380951335456  0.0471117820000018   F   F   F
  0.0000000000000000  0.6666666666296166  0.0471117820000018   F   F   F
  0.1666666668260461  0.6666666666296166  0.0471117820000018   F   F   F
  0.3333333330743926  0.6666666666296166  0.0471117820000018   F   F   F
  0.4999999999004388  0.6666666666296166  0.0471117820000018   F   F   F
  0.6666666667264920  0.6666666666296166  0.0471117820000018   F   F   F
  0.8333333335525381  0.6666666666296166  0.0471117820000018   F   F   F
  0.0833333331241732  0.7380952381256947  0.0471117820000018   F   F   F
  0.2499999999502194  0.7380952381256947  0.0471117820000018   F   F   F
  0.4166666667762655  0.7380952381256947  0.0471117820000018   F   F   F
  0.5833333336023188  0.7380952381256947  0.0471117820000018   F   F   F
  0.7499999998506652  0.7380952381256947  0.0471117820000018   F   F   F
  0.9166666666767114  0.7380952381256947  0.0471117820000018   F   F   F
  0.0000000000000000  0.8095238096217656  0.0471117820000018   F   F   F
  0.1666666668260461  0.8095238096217656  0.0471117820000018   F   F   F
  0.3333333330743926  0.8095238096217656  0.0471117820000018   F   F   F
  0.4999999999004388  0.8095238096217656  0.0471117820000018   F   F   F
  0.6666666667264920  0.8095238096217656  0.0471117820000018   F   F   F
  0.8333333335525381  0.8095238096217656  0.0471117820000018   F   F   F
  0.0833333331241732  0.8809523808319568  0.0471117820000018   F   F   F
  0.2499999999502194  0.8809523808319568  0.0471117820000018   F   F   F
  0.4166666667762655  0.8809523808319568  0.0471117820000018   F   F   F
  0.5833333336023188  0.8809523808319568  0.0471117820000018   F   F   F
  0.7499999998506652  0.8809523808319568  0.0471117820000018   F   F   F
  0.9166666666767114  0.8809523808319568  0.0471117820000018   F   F   F
  0.0000000000000000  0.9523809523280278  0.0471117820000018   F   F   F
  0.1666666668260461  0.9523809523280278  0.0471117820000018   F   F   F
  0.3333333330743926  0.9523809523280278  0.0471117820000018   F   F   F
  0.4999999999004388  0.9523809523280278  0.0471117820000018   F   F   F
  0.6666666667264920  0.9523809523280278  0.0471117820000018   F   F   F
  0.8333333335525381  0.9523809523280278  0.0471117820000018   F   F   F
  0.0000000000000000  0.0476190477593477  0.0942235640000035   F   F   F
  0.1666666668260461  0.0476190477593477  0.0942235640000035   F   F   F
  0.3333333330743926  0.0476190477593477  0.0942235640000035   F   F   F
  0.4999999999004388  0.0476190477593477  0.0942235640000035   F   F   F
  0.6666666667264920  0.0476190477593477  0.0942235640000035   F   F   F
  0.8333333335525381  0.0476190477593477  0.0942235640000035   F   F   F
  0.0833333331241732  0.1190476189695318  0.0942235640000035   F   F   F
  0.2499999999502194  0.1190476189695318  0.0942235640000035   F   F   F
  0.4166666667762655  0.1190476189695318  0.0942235640000035   F   F   F
  0.5833333336023188  0.1190476189695318  0.0942235640000035   F   F   F
  0.7499999998506652  0.1190476189695318  0.0942235640000035   F   F   F
  0.9166666666767114  0.1190476189695318  0.0942235640000035   F   F   F
  0.0000000000000000  0.1904761904656027  0.0942235640000035   F   F   F
  0.1666666668260461  0.1904761904656027  0.0942235640000035   F   F   F
  0.3333333330743926  0.1904761904656027  0.0942235640000035   F   F   F
  0.4999999999004388  0.1904761904656027  0.0942235640000035   F   F   F
  0.6666666667264920  0.1904761904656027  0.0942235640000035   F   F   F
  0.8333333335525381  0.1904761904656027  0.0942235640000035   F   F   F
  0.0833333331241732  0.2619047619616808  0.0942235640000035   F   F   F
  0.2499999999502194  0.2619047619616808  0.0942235640000035   F   F   F
  0.4166666667762655  0.2619047619616808  0.0942235640000035   F   F   F
  0.5833333336023188  0.2619047619616808  0.0942235640000035   F   F   F
  0.7499999998506652  0.2619047619616808  0.0942235640000035   F   F   F
  0.9166666666767114  0.2619047619616808  0.0942235640000035   F   F   F
  0.0000000000000000  0.3333333334577517  0.0942235640000035   F   F   F
  0.1666666668260461  0.3333333334577517  0.0942235640000035   F   F   F
  0.3333333330743926  0.3333333334577517  0.0942235640000035   F   F   F
  0.4999999999004388  0.3333333334577517  0.0942235640000035   F   F   F
  0.6666666667264920  0.3333333334577517  0.0942235640000035   F   F   F
  0.8333333335525381  0.3333333334577517  0.0942235640000035   F   F   F
  0.0833333331241732  0.4047619046679429  0.0942235640000035   F   F   F
  0.2499999999502194  0.4047619046679429  0.0942235640000035   F   F   F
  0.4166666667762655  0.4047619046679429  0.0942235640000035   F   F   F
  0.5833333336023188  0.4047619046679429  0.0942235640000035   F   F   F
  0.7499999998506652  0.4047619046679429  0.0942235640000035   F   F   F
  0.9166666666767114  0.4047619046679429  0.0942235640000035   F   F   F
  0.0000000000000000  0.4761904761640139  0.0942235640000035   F   F   F
  0.1666666668260461  0.4761904761640139  0.0942235640000035   F   F   F
  0.3333333330743926  0.4761904761640139  0.0942235640000035   F   F   F
  0.4999999999004388  0.4761904761640139  0.0942235640000035   F   F   F
  0.6666666667264920  0.4761904761640139  0.0942235640000035   F   F   F
  0.8333333335525381  0.4761904761640139  0.0942235640000035   F   F   F
  0.0833333331241732  0.5476190476600920  0.0942235640000035   F   F   F
  0.2499999999502194  0.5476190476600920  0.0942235640000035   F   F   F
  0.4166666667762655  0.5476190476600920  0.0942235640000035   F   F   F
  0.5833333336023188  0.5476190476600920  0.0942235640000035   F   F   F
  0.7499999998506652  0.5476190476600920  0.0942235640000035   F   F   F
  0.9166666666767114  0.5476190476600920  0.0942235640000035   F   F   F
  0.0000000000000000  0.6190476191561629  0.0942235640000035   F   F   F
  0.1666666668260461  0.6190476191561629  0.0942235640000035   F   F   F
  0.3333333330743926  0.6190476191561629  0.0942235640000035   F   F   F
  0.4999999999004388  0.6190476191561629  0.0942235640000035   F   F   F
  0.6666666667264920  0.6190476191561629  0.0942235640000035   F   F   F
  0.8333333335525381  0.6190476191561629  0.0942235640000035   F   F   F
  0.0833333331241732  0.6904761903663470  0.0942235640000035   F   F   F
  0.2499999999502194  0.6904761903663470  0.0942235640000035   F   F   F
  0.4166666667762655  0.6904761903663470  0.0942235640000035   F   F   F
  0.5833333336023188  0.6904761903663470  0.0942235640000035   F   F   F
  0.7499999998506652  0.6904761903663470  0.0942235640000035   F   F   F
  0.9166666666767114  0.6904761903663470  0.0942235640000035   F   F   F
  0.0000000000000000  0.7619047618624251  0.0942235640000035   F   F   F
  0.1666666668260461  0.7619047618624251  0.0942235640000035   F   F   F
  0.3333333330743926  0.7619047618624251  0.0942235640000035   F   F   F
  0.4999999999004388  0.7619047618624251  0.0942235640000035   F   F   F
  0.6666666667264920  0.7619047618624251  0.0942235640000035   F   F   F
  0.8333333335525381  0.7619047618624251  0.0942235640000035   F   F   F
  0.0833333331241732  0.8333333333584960  0.0942235640000035   F   F   F
  0.2499999999502194  0.8333333333584960  0.0942235640000035   F   F   F
  0.4166666667762655  0.8333333333584960  0.0942235640000035   F   F   F
  0.5833333336023188  0.8333333333584960  0.0942235640000035   F   F   F
  0.7499999998506652  0.8333333333584960  0.0942235640000035   F   F   F
  0.9166666666767114  0.8333333333584960  0.0942235640000035   F   F   F
  0.0000000000000000  0.9047619048545741  0.0942235640000035   F   F   F
  0.1666666668260461  0.9047619048545741  0.0942235640000035   F   F   F
  0.3333333330743926  0.9047619048545741  0.0942235640000035   F   F   F
  0.4999999999004388  0.9047619048545741  0.0942235640000035   F   F   F
  0.6666666667264920  0.9047619048545741  0.0942235640000035   F   F   F
  0.8333333335525381  0.9047619048545741  0.0942235640000035   F   F   F
  0.0833333331241732  0.9761904760647582  0.0942235640000035   F   F   F
  0.2499999999502194  0.9761904760647582  0.0942235640000035   F   F   F
  0.4166666667762655  0.9761904760647582  0.0942235640000035   F   F   F
  0.5833333336023188  0.9761904760647582  0.0942235640000035   F   F   F
  0.7499999998506652  0.9761904760647582  0.0942235640000035   F   F   F
  0.9166666666767114  0.9761904760647582  0.0942235640000035   F   F   F
  0.9998782904419117  0.0001516076785762  0.1429554653921722   T   T   T
  0.1667911828190074  0.0000437575297418  0.1430798334016171   T   T   T
  0.3331319121656128  0.0000109350867676  0.1430861941056820   T   T   T
  0.5000512308066036  0.0000238109754421  0.1429553761797862   T   T   T
  0.6664857973242310  0.0000648876298142  0.1430792333570504   T   T   T
  0.8334629840169067  0.0001142641327894  0.1430802619102184   T   T   T
  0.0831146524740845  0.0715061947486216  0.1432259799205294   T   T   T
  0.2498685899896199  0.0716536806801459  0.1431734399950101   T   T   T
  0.4166460205313531  0.0714421099703652  0.1432233985997607   T   T   T
  0.5833758297574686  0.0716813886935093  0.1431913688210707   T   T   T
  0.7499538283352161  0.0714574729671627  0.1432565109383530   T   T   T
  0.9161634682543155  0.0718739720206061  0.1431860406075063   T   T   T
  0.9996504223293911  0.1428407306428670  0.1429011005127206   T   T   T
  0.1663697500568553  0.1429511690948042  0.1431386958573827   T   T   T
  0.3331919601664596  0.1429202707148818  0.1430942944424251   T   T   T
  0.4996686085205517  0.1428395999905509  0.1430114051258914   T   T   T
  0.6668912932677624  0.1428235385395273  0.1435967475759933   T   T   T
  0.8321419820033588  0.1431304309493176  0.1442238845570803   T   T   T
  0.0831228519649512  0.2144256450896825  0.1426835413913882   T   T   T
  0.2493516004461984  0.2145497793695760  0.1424329631482645   T   T   T
  0.4157858314227235  0.2144667274136149  0.1427677557839211   T   T   T
  0.5823152293891136  0.2144607264826792  0.1413957505103077   T   T   T
  0.7495534550579629  0.2151159954141210  0.1432416527096034   T   T   T
  0.9162169337612653  0.2145765015518799  0.1415336376256366   T   T   T
  0.0006850997077074  0.2858169774846023  0.1427690186420272   T   T   T
  0.1670147999020198  0.2859531204112807  0.1433339372244157   T   T   T
  0.3326803483534689  0.2858974563664738  0.1433719718705349   T   T   T
  0.4989713024036985  0.2858872415875505  0.1428446675472886   T   T   T
  0.6664192866484414  0.2862539516264647  0.1432881407169026   T   T   T
  0.8330096951646451  0.2863274454103516  0.1437337198502024   T   T   T
  0.0837814365617533  0.3573919011080233  0.1425941331244185   T   T   T
  0.2499403136120389  0.3570661082053537  0.1430063023752245   T   T   T
  0.4160843404693595  0.3574262659546452  0.1426235425107130   T   T   T
  0.5832910454452646  0.3570882122546740  0.1425751075702565   T   T   T
  0.7501615422669323  0.3572935770606539  0.1432367677832800   T   T   T
  0.9167214930000397  0.3570019653960004  0.1426753370003303   T   T   T
  0.0010704037528101  0.4290634353521746  0.1424104122946932   T   T   T
  0.1673236880875420  0.4288225019284240  0.1429986229595042   T   T   T
  0.3331581324837063  0.4288751191419019  0.1429940083168477   T   T   T
  0.4994451994125181  0.4290411367730309  0.1424901079300911   T   T   T
  0.6675436455662116  0.4286593272276586  0.1430552459135281   T   T   T
  0.8332920926128529  0.4285971351717907  0.1432743134359041   T   T   T
  0.0838961478759657  0.5002199564069433  0.1433767199059997   T   T   T
  0.2500006720124068  0.5001760020692733  0.1431066986473519   T   T   T
  0.4161418192910878  0.5002080265402010  0.1433862563972899   T   T   T
  0.5836290371195494  0.5001021088730551  0.1427553005507531   T   T   T
  0.7500340545126714  0.5001764616733798  0.1432056040213814   T   T   T
  0.9163605979257410  0.5000895310307442  0.1427567917343466   T   T   T
  0.0004519982429345  0.5711990546240594  0.1425558581015026   T   T   T
  0.1667624588215873  0.5715186127727983  0.1430463493828989   T   T   T
  0.3328716194494073  0.5715588336326982  0.1430548287726961   T   T   T
  0.4991698134566565  0.5711730597716258  0.1424999200094900   T   T   T
  0.6668431330731942  0.5716834252567550  0.1432745945674853   T   T   T
  0.8324959999013499  0.5716235547041675  0.1431050540946393   T   T   T
  0.0836987685487961  0.6428916286607991  0.1426031064699134   T   T   T
  0.2500610608875652  0.6431903528801605  0.1429926355739991   T   T   T
  0.4164220955588239  0.6428997839207377  0.1425868522388451   T   T   T
  0.5834161480036998  0.6431001987291669  0.1427342150421887   T   T   T
  0.7498262952547022  0.6431100290246951  0.1432709024490060   T   T   T
  0.9165502519120321  0.6430077426896296  0.1426478335893576   T   T   T
  0.0005645731737335  0.7142529865626763  0.1428375766052524   T   T   T
  0.1670979023979244  0.7142886933689486  0.1434156845370660   T   T   T
  0.3331030183275579  0.7142452903821692  0.1433721632399667   T   T   T
  0.4996553793367389  0.7142984397826685  0.1428016640951711   T   T   T
  0.6671675369961603  0.7141199849888864  0.1437061927731226   T   T   T
  0.8332467267300440  0.7140661354406692  0.1433687218334517   T   T   T
  0.0840432664885307  0.7856981168336465  0.1427340687651841   T   T   T
  0.2504717209411320  0.7855610389901011  0.1424107459182622   T   T   T
  0.4167496807715891  0.7857211633443487  0.1426644236867803   T   T   T
  0.5835032622868980  0.7857312616764266  0.1415407777585359   T   T   T
  0.7503690230850601  0.7856846970027552  0.1432516587641701   T   T   T
  0.9176193972636336  0.7857864064492427  0.1414336768296968   T   T   T
  0.0004731748302388  0.8572939510747180  0.1430101255798559   T   T   T
  0.1667349604791488  0.8571481773390940  0.1430333684840830   T   T   T
  0.3334622243643354  0.8571310850008689  0.1430999612927819   T   T   T
  0.4999597473410283  0.8572684501281161  0.1428927245425953   T   T   T
  0.6675320455103987  0.8573109375036372  0.1441275359262642   T   T   T
  0.8331304489093118  0.8574615891781356  0.1436056766503943   T   T   T
  0.0832616524587607  0.9287093547793565  0.1432062117045565   T   T   T
  0.2500425639341708  0.9283860204050064  0.1430965512608002   T   T   T
  0.4167996255876486  0.9286422960706734  0.1432099366884075   T   T   T
  0.5836327042089561  0.9283006397577941  0.1431331728581108   T   T   T
  0.7500138772635914  0.9288117945229534  0.1432963723304780   T   T   T
  0.9166234019061340  0.9284427820874742  0.1431493583030466   T   T   T
  0.7419974335852585  0.7911683744838544  0.1941730912932907   T   T   T
  0.7596185233539489  0.2084578413885384  0.1940479375118449   T   T   T
  0.3425204829393295  0.6890033203450189  0.2103436989321681   T   T   T
  0.2431305326884940  0.6226482056521184  0.2093361969600605   T   T   T
  0.1428916067394521  0.6891134792901867  0.2101961950293477   T   T   T
  0.2422937501493046  0.7549617775986653  0.2107061639631790   T   T   T
  0.6202757516771243  0.5878283864097069  0.2038255038476573   T   T   T
  0.6269985079474168  0.7855050928549632  0.2045460047050507   T   T   T
  0.8662633629963253  0.5872258805883657  0.2035636738861395   T   T   T
  0.8574301321383273  0.7850537052537507  0.2045433693387408   T   T   T
  0.3586807794532738  0.3108516215519674  0.2102828090451857   T   T   T
  0.2592455683355450  0.2450623817918027  0.2108218152649257   T   T   T
  0.1587674206532633  0.3109953163563876  0.2104993307285026   T   T   T
  0.2581793795253672  0.3773180664406083  0.2092472779825216   T   T   T
  0.6440901099511779  0.2148303092876538  0.2045499250484112   T   T   T
  0.6347951620230750  0.4129184124243900  0.2026222307974974   T   T   T
  0.8746177915401818  0.2142475659957780  0.2045480802559962   T   T   T
  0.8812021995374428  0.4121487479482115  0.2029304291841471   T   T   T
  0.4730613150230031  0.6684663405452458  0.2088666139233094   T   T   T
  0.4734441674115715  0.7081631617628956  0.2090551488903667   T   T   T
  0.3921031701034827  0.7191795755033943  0.2099974599286544   T   T   T
  0.3912657210777465  0.6584015168847089  0.2096181669919489   T   T   T
  0.2031291448033685  0.5615051727966149  0.2078840055764149   T   T   T
  0.2831231998164971  0.5614819036425908  0.2080152464683128   T   T   T
  0.3087315343584511  0.6004346622787384  0.2089336294463668   T   T   T
  0.1775465281632981  0.6004782737932514  0.2087697782081619   T   T   T
  0.3814352616871893  0.6181688983975964  0.2091218161471724   T   T   T
  0.0117081417837650  0.7079398230818802  0.2088556233270684   T   T   T
  0.0126001014718357  0.6682416952478653  0.2085579097734826   T   T   T
  0.0945463714204662  0.6583797341844811  0.2093254229611722   T   T   T
  0.0929421453475682  0.7191476244878235  0.2099109617537324   T   T   T
  0.1047607811006892  0.6181525370167319  0.2088245179063580   T   T   T
  0.2824255542804047  0.8159916605874399  0.2093394159597730   T   T   T
  0.2021877698495975  0.8160016275964833  0.2094499177938968   T   T   T
  0.1760459156755279  0.7771932432916202  0.2102540641982386   T   T   T
  0.3085706515434659  0.7771668150352623  0.2101259155874772   T   T   T
  0.3829032829845175  0.7596921026409887  0.2099703104216846   T   T   T
  0.1017598189745364  0.7596567271823101  0.2100372849250441   T   T   T
  0.5156352916395089  0.6329298753681157  0.2076496774945141   T   T   T
  0.4600430411970234  0.6021537678519313  0.2079157788310927   T   T   T
  0.4876145031925373  0.5649648940424672  0.2060009029276441   T   T   T
  0.5682529365161332  0.5595925534544929  0.2043188894513421   T   T   T
  0.5938754694254961  0.6241209135162959  0.2052506915742995   T   T   T
  0.5173146446489816  0.7431183016026675  0.2084333019400188   T   T   T
  0.4628595555560144  0.7747889266186386  0.2090014717867421   T   T   T
  0.5961590801364827  0.7495558342022657  0.2063014071949398   T   T   T
  0.5762844222804882  0.8153113092139697  0.2055507342270275   T   T   T
  0.4958222648958231  0.8112680795830856  0.2077673990019043   T   T   T
  0.0216308397738083  0.7745842635068526  0.2091148892130927   T   T   T
  0.0263511244106570  0.6019469414153614  0.2076098676257686   T   T   T
  0.9704409895042480  0.6325984496439530  0.2072801452403309   T   T   T
  0.8923141775476807  0.6235924572979621  0.2048752564835286   T   T   T
  0.9185168611026348  0.5591023949138236  0.2042468771012889   T   T   T
  0.9991172707953970  0.5646662121120722  0.2058646525517910   T   T   T
  0.9674412207120371  0.7428210984921699  0.2084025193166085   T   T   T
  0.9884610491986565  0.8109988013816146  0.2078193874907849   T   T   T
  0.9079511276900273  0.8149034966453227  0.2055337801861157   T   T   T
  0.8885168951407115  0.7491515579063439  0.2062209580680360   T   T   T
  0.4898852530898433  0.2920541710664148  0.2088241808635255   T   T   T
  0.4889104121452568  0.3317803759893413  0.2084444039231169   T   T   T
  0.4069511650241885  0.3416020764647184  0.2092902273313001   T   T   T
  0.4086752934640207  0.2808443496078267  0.2099918835690936   T   T   T
  0.2191142142398790  0.1840350269281908  0.2093748347695019   T   T   T
  0.2993420915170037  0.1840204561279566  0.2094964584876274   T   T   T
  0.3255034942031569  0.2228254161695027  0.2103459732384124   T   T   T
  0.1929566351330197  0.2228588591608990  0.2102121736990078   T   T   T
  0.3998131609330172  0.2403328387453948  0.2101202977938966   T   T   T
  0.0282032698694805  0.3314914176640135  0.2088850328666249   T   T   T
  0.0278789876535314  0.2917727849598790  0.2091522858977678   T   T   T
  0.1092387768525817  0.2808048099832781  0.2101608141404005   T   T   T
  0.1099849863577259  0.3415758782444241  0.2096875398158223   T   T   T
  0.1185812597630430  0.2402935147286460  0.2100922609043526   T   T   T
  0.2981873538552401  0.4384268190824029  0.2072926880807076   T   T   T
  0.2181575653919238  0.4384542882183222  0.2074592905521695   T   T   T
  0.1925585984486555  0.3995280527892500  0.2086888229292155   T   T   T
  0.3237669898561161  0.3994742655813081  0.2084788774343494   T   T   T
  0.3965819794789375  0.3818177135639997  0.2085820903444484   T   T   T
  0.1198544022251965  0.3817973430560802  0.2089699794089595   T   T   T
  0.5341383171811057  0.2571536939395159  0.2083639151402044   T   T   T
  0.4799243374995515  0.2253999445888485  0.2091636438625343   T   T   T
  0.5130406670241299  0.1889618570725627  0.2079422348252248   T   T   T
  0.5935288899893594  0.1850086314138626  0.2056594552015258   T   T   T
  0.6130662363350929  0.2507582528261707  0.2061376503289208   T   T   T
  0.5309179051071686  0.3674501458302527  0.2069105941411231   T   T   T
  0.4748754830380700  0.3980629166695401  0.2071464849478274   T   T   T
  0.6089560140742420  0.3765240838838925  0.2042619868626136   T   T   T
  0.5824251233223386  0.4409930572465273  0.2032188889286561   T   T   T
  0.5018814742453334  0.4353536531959414  0.2050491331319882   T   T   T
  0.0413002053722462  0.3978029836461129  0.2075374710318238   T   T   T
  0.0386917658247842  0.2251422589014217  0.2090792368621334   T   T   T
  0.9841276793337939  0.2567726124464720  0.2084752865739308   T   T   T
  0.9053201366318627  0.2502384499426639  0.2062787736600636   T   T   T
  0.9254407594113006  0.1844931948180159  0.2056421744344510   T   T   T
  0.0058709429744878  0.1886259947280494  0.2078693095090123   T   T   T
  0.9856630275446528  0.3670325177035287  0.2074036567208342   T   T   T
  0.0138677291813447  0.4349707128340795  0.2051970454500611   T   T   T
  0.9332750223248624  0.4403668379836210  0.2032697111775388   T   T   T
  0.9074870724302745  0.3758533088699536  0.2047473577082565   T   T   T
  0.1657444504763099  0.5366632233856480  0.2070641043905853   T   T   T
  0.3204223869658854  0.5366027795527527  0.2072899544828439   T   T   T
  0.2432305785888020  0.6521672310534707  0.2097596024033314   T   T   T
  0.3194976701805730  0.8409852472458847  0.2083634191995404   T   T   T
  0.1651292059322634  0.8410048380695103  0.2085564610604327   T   T   T
  0.2422165890703476  0.7254359893321064  0.2107068654642910   T   T   T
  0.4494720998321140  0.5401728493585199  0.2057215049348592   T   T   T
  0.5916399888583576  0.5306143843523811  0.2030252015223255   T   T   T
  0.6376935705616572  0.6466385507099978  0.2045194795037772   T   T   T
  0.6366624373930149  0.7257271109925275  0.2050541122666277   T   T   T
  0.6014817072572850  0.8437693078643469  0.2037604847969485   T   T   T
  0.4610024902001119  0.8372330641138164  0.2077275337666302   T   T   T
  0.8483066661802202  0.6460061937908441  0.2040059734511057   T   T   T
  0.8952451646190911  0.5300780789928555  0.2031463627282405   T   T   T
  0.0374399450515485  0.5399437945742172  0.2057794482228273   T   T   T
  0.0231294535384971  0.8370168415877722  0.2077558325803621   T   T   T
  0.8826824246998146  0.8433501464901973  0.2037123650161943   T   T   T
  0.8481653715765116  0.7252723988418845  0.2049082313687078   T   T   T
  0.1820440903371357  0.1590458132508913  0.2083518601065608   T   T   T
  0.3363930717876465  0.1590189398684209  0.2085645542561184   T   T   T
  0.2593438908554257  0.2745859100894590  0.2108578506207001   T   T   T
  0.3355333234244399  0.4632661135906949  0.2062539691814246   T   T   T
  0.1808915514930322  0.4633309027831142  0.2065348389496161   T   T   T
  0.2580532433172492  0.3478085216862540  0.2098377538714846   T   T   T
  0.4783199263837923  0.1629628275820708  0.2079672522147970   T   T   T
  0.6187418819645306  0.1565424891902317  0.2039023625992396   T   T   T
  0.6534687613194213  0.2746091364489133  0.2047562945437654   T   T   T
  0.6530842735263209  0.3541654652771283  0.2034610287630609   T   T   T
  0.6055061150219579  0.4700209527782095  0.2017775511212831   T   T   T
  0.4634430772888248  0.4600304481871623  0.2048478255943849   T   T   T
  0.8647142872633620  0.2740211306731292  0.2049838769275379   T   T   T
  0.9003553175820490  0.1560085624771506  0.2038784545618922   T   T   T
  0.0407935710868268  0.1626978317891721  0.2078872063586905   T   T   T
  0.0520735172474097  0.4597345106681244  0.2047267583742065   T   T   T
  0.9100295420883993  0.4693281539993177  0.2015588448524247   T   T   T
  0.8636011277429432  0.3533637524593319  0.2041259137512251   T   T   T
 
  0.00000000E+00  0.00000000E+00  0.00000000E+00
  0.00000000E+00  0.00000000E+00  0.00000000E+00
  0.00000000E+00  0.00000000E+00  0.00000000E+00
  0.00000000E+00  0.00000000E+00  0.00000000E+00
  0.00000000E+00  0.00000000E+00  0.00000000E+00
  0.00000000E+00  0.00000000E+00  0.00000000E+00
  0.00000000E+00  0.00000000E+00  0.00000000E+00
  0.00000000E+00  0.00000000E+00  0.00000000E+00
  0.00000000E+00  0.00000000E+00  0.00000000E+00
  0.00000000E+00  0.00000000E+00  0.00000000E+00
  0.00000000E+00  0.00000000E+00  0.00000000E+00
  0.00000000E+00  0.00000000E+00  0.00000000E+00
  0.00000000E+00  0.00000000E+00  0.00000000E+00
  0.00000000E+00  0.00000000E+00  0.00000000E+00
  0.00000000E+00  0.00000000E+00  0.00000000E+00
  0.00000000E+00  0.00000000E+00  0.00000000E+00
  0.00000000E+00  0.00000000E+00  0.00000000E+00
  0.00000000E+00  0.00000000E+00  0.00000000E+00
  0.00000000E+00  0.00000000E+00  0.00000000E+00
  0.00000000E+00  0.00000000E+00  0.00000000E+00
  0.00000000E+00  0.00000000E+00  0.00000000E+00
  0.00000000E+00  0.00000000E+00  0.00000000E+00
  0.00000000E+00  0.00000000E+00  0.00000000E+00
  0.00000000E+00  0.00000000E+00  0.00000000E+00
  0.00000000E+00  0.00000000E+00  0.00000000E+00
  0.00000000E+00  0.00000000E+00  0.00000000E+00
  0.00000000E+00  0.00000000E+00  0.00000000E+00
  0.00000000E+00  0.00000000E+00  0.00000000E+00
  0.00000000E+00  0.00000000E+00  0.00000000E+00
  0.00000000E+00  0.00000000E+00  0.00000000E+00
  0.00000000E+00  0.00000000E+00  0.00000000E+00
  0.00000000E+00  0.00000000E+00  0.00000000E+00
  0.00000000E+00  0.00000000E+00  0.00000000E+00
  0.00000000E+00  0.00000000E+00  0.00000000E+00
  0.00000000E+00  0.00000000E+00  0.00000000E+00
  0.00000000E+00  0.00000000E+00  0.00000000E+00
  0.00000000E+00  0.00000000E+00  0.00000000E+00
  0.00000000E+00  0.00000000E+00  0.00000000E+00
  0.00000000E+00  0.00000000E+00  0.00000000E+00
  0.00000000E+00  0.00000000E+00  0.00000000E+00
  0.00000000E+00  0.00000000E+00  0.00000000E+00
  0.00000000E+00  0.00000000E+00  0.00000000E+00
  0.00000000E+00  0.00000000E+00  0.00000000E+00
  0.00000000E+00  0.00000000E+00  0.00000000E+00
  0.00000000E+00  0.00000000E+00  0.00000000E+00
  0.00000000E+00  0.00000000E+00  0.00000000E+00
  0.00000000E+00  0.00000000E+00  0.00000000E+00
  0.00000000E+00  0.00000000E+00  0.00000000E+00
  0.00000000E+00  0.00000000E+00  0.00000000E+00
  0.00000000E+00  0.00000000E+00  0.00000000E+00
  0.00000000E+00  0.00000000E+00  0.00000000E+00
  0.00000000E+00  0.00000000E+00  0.00000000E+00
  0.00000000E+00  0.00000000E+00  0.00000000E+00
  0.00000000E+00  0.00000000E+00  0.00000000E+00
  0.00000000E+00  0.00000000E+00  0.00000000E+00
  0.00000000E+00  0.00000000E+00  0.00000000E+00
  0.00000000E+00  0.00000000E+00  0.00000000E+00
  0.00000000E+00  0.00000000E+00  0.00000000E+00
  0.00000000E+00  0.00000000E+00  0.00000000E+00
  0.00000000E+00  0.00000000E+00  0.00000000E+00
  0.00000000E+00  0.00000000E+00  0.00000000E+00
  0.00000000E+00  0.00000000E+00  0.00000000E+00
  0.00000000E+00  0.00000000E+00  0.00000000E+00
  0.00000000E+00  0.00000000E+00  0.00000000E+00
  0.00000000E+00  0.00000000E+00  0.00000000E+00
  0.00000000E+00  0.00000000E+00  0.00000000E+00
  0.00000000E+00  0.00000000E+00  0.00000000E+00
  0.00000000E+00  0.00000000E+00  0.00000000E+00
  0.00000000E+00  0.00000000E+00  0.00000000E+00
  0.00000000E+00  0.00000000E+00  0.00000000E+00
  0.00000000E+00  0.00000000E+00  0.00000000E+00
  0.00000000E+00  0.00000000E+00  0.00000000E+00
  0.00000000E+00  0.00000000E+00  0.00000000E+00
  0.00000000E+00  0.00000000E+00  0.00000000E+00
  0.00000000E+00  0.00000000E+00  0.00000000E+00
  0.00000000E+00  0.00000000E+00  0.00000000E+00
  0.00000000E+00  0.00000000E+00  0.00000000E+00
  0.00000000E+00  0.00000000E+00  0.00000000E+00
  0.00000000E+00  0.00000000E+00  0.00000000E+00
  0.00000000E+00  0.00000000E+00  0.00000000E+00
  0.00000000E+00  0.00000000E+00  0.00000000E+00
  0.00000000E+00  0.00000000E+00  0.00000000E+00
  0.00000000E+00  0.00000000E+00  0.00000000E+00
  0.00000000E+00  0.00000000E+00  0.00000000E+00
  0.00000000E+00  0.00000000E+00  0.00000000E+00
  0.00000000E+00  0.00000000E+00  0.00000000E+00
  0.00000000E+00  0.00000000E+00  0.00000000E+00
  0.00000000E+00  0.00000000E+00  0.00000000E+00
  0.00000000E+00  0.00000000E+00  0.00000000E+00
  0.00000000E+00  0.00000000E+00  0.00000000E+00
  0.00000000E+00  0.00000000E+00  0.00000000E+00
  0.00000000E+00  0.00000000E+00  0.00000000E+00
  0.00000000E+00  0.00000000E+00  0.00000000E+00
  0.00000000E+00  0.00000000E+00  0.00000000E+00
  0.00000000E+00  0.00000000E+00  0.00000000E+00
  0.00000000E+00  0.00000000E+00  0.00000000E+00
  0.00000000E+00  0.00000000E+00  0.00000000E+00
  0.00000000E+00  0.00000000E+00  0.00000000E+00
  0.00000000E+00  0.00000000E+00  0.00000000E+00
  0.00000000E+00  0.00000000E+00  0.00000000E+00
  0.00000000E+00  0.00000000E+00  0.00000000E+00
  0.00000000E+00  0.00000000E+00  0.00000000E+00
  0.00000000E+00  0.00000000E+00  0.00000000E+00
  0.00000000E+00  0.00000000E+00  0.00000000E+00
  0.00000000E+00  0.00000000E+00  0.00000000E+00
  0.00000000E+00  0.00000000E+00  0.00000000E+00
  0.00000000E+00  0.00000000E+00  0.00000000E+00
  0.00000000E+00  0.00000000E+00  0.00000000E+00
  0.00000000E+00  0.00000000E+00  0.00000000E+00
  0.00000000E+00  0.00000000E+00  0.00000000E+00
  0.00000000E+00  0.00000000E+00  0.00000000E+00
  0.00000000E+00  0.00000000E+00  0.00000000E+00
  0.00000000E+00  0.00000000E+00  0.00000000E+00
  0.00000000E+00  0.00000000E+00  0.00000000E+00
  0.00000000E+00  0.00000000E+00  0.00000000E+00
  0.00000000E+00  0.00000000E+00  0.00000000E+00
  0.00000000E+00  0.00000000E+00  0.00000000E+00
  0.00000000E+00  0.00000000E+00  0.00000000E+00
  0.00000000E+00  0.00000000E+00  0.00000000E+00
  0.00000000E+00  0.00000000E+00  0.00000000E+00
  0.00000000E+00  0.00000000E+00  0.00000000E+00
  0.00000000E+00  0.00000000E+00  0.00000000E+00
  0.00000000E+00  0.00000000E+00  0.00000000E+00
  0.00000000E+00  0.00000000E+00  0.00000000E+00
  0.00000000E+00  0.00000000E+00  0.00000000E+00
  0.00000000E+00  0.00000000E+00  0.00000000E+00
  0.00000000E+00  0.00000000E+00  0.00000000E+00
  0.00000000E+00  0.00000000E+00  0.00000000E+00
  0.00000000E+00  0.00000000E+00  0.00000000E+00
  0.00000000E+00  0.00000000E+00  0.00000000E+00
  0.00000000E+00  0.00000000E+00  0.00000000E+00
  0.00000000E+00  0.00000000E+00  0.00000000E+00
  0.00000000E+00  0.00000000E+00  0.00000000E+00
  0.00000000E+00  0.00000000E+00  0.00000000E+00
  0.00000000E+00  0.00000000E+00  0.00000000E+00
  0.00000000E+00  0.00000000E+00  0.00000000E+00
  0.00000000E+00  0.00000000E+00  0.00000000E+00
  0.00000000E+00  0.00000000E+00  0.00000000E+00
  0.00000000E+00  0.00000000E+00  0.00000000E+00
  0.00000000E+00  0.00000000E+00  0.00000000E+00
  0.00000000E+00  0.00000000E+00  0.00000000E+00
  0.00000000E+00  0.00000000E+00  0.00000000E+00
  0.00000000E+00  0.00000000E+00  0.00000000E+00
  0.00000000E+00  0.00000000E+00  0.00000000E+00
  0.00000000E+00  0.00000000E+00  0.00000000E+00
  0.00000000E+00  0.00000000E+00  0.00000000E+00
  0.00000000E+00  0.00000000E+00  0.00000000E+00
  0.00000000E+00  0.00000000E+00  0.00000000E+00
  0.00000000E+00  0.00000000E+00  0.00000000E+00
  0.00000000E+00  0.00000000E+00  0.00000000E+00
  0.00000000E+00  0.00000000E+00  0.00000000E+00
  0.00000000E+00  0.00000000E+00  0.00000000E+00
  0.00000000E+00  0.00000000E+00  0.00000000E+00
  0.00000000E+00  0.00000000E+00  0.00000000E+00
  0.00000000E+00  0.00000000E+00  0.00000000E+00
  0.00000000E+00  0.00000000E+00  0.00000000E+00
  0.00000000E+00  0.00000000E+00  0.00000000E+00
  0.00000000E+00  0.00000000E+00  0.00000000E+00
  0.00000000E+00  0.00000000E+00  0.00000000E+00
  0.00000000E+00  0.00000000E+00  0.00000000E+00
  0.00000000E+00  0.00000000E+00  0.00000000E+00
  0.00000000E+00  0.00000000E+00  0.00000000E+00
  0.00000000E+00  0.00000000E+00  0.00000000E+00
  0.00000000E+00  0.00000000E+00  0.00000000E+00
  0.00000000E+00  0.00000000E+00  0.00000000E+00
  0.00000000E+00  0.00000000E+00  0.00000000E+00
  0.00000000E+00  0.00000000E+00  0.00000000E+00
  0.00000000E+00  0.00000000E+00  0.00000000E+00
  0.00000000E+00  0.00000000E+00  0.00000000E+00
  0.00000000E+00  0.00000000E+00  0.00000000E+00
  0.00000000E+00  0.00000000E+00  0.00000000E+00
  0.00000000E+00  0.00000000E+00  0.00000000E+00
  0.00000000E+00  0.00000000E+00  0.00000000E+00
  0.00000000E+00  0.00000000E+00  0.00000000E+00
  0.00000000E+00  0.00000000E+00  0.00000000E+00
  0.00000000E+00  0.00000000E+00  0.00000000E+00
  0.00000000E+00  0.00000000E+00  0.00000000E+00
  0.00000000E+00  0.00000000E+00  0.00000000E+00
  0.00000000E+00  0.00000000E+00  0.00000000E+00
  0.00000000E+00  0.00000000E+00  0.00000000E+00
  0.00000000E+00  0.00000000E+00  0.00000000E+00
  0.00000000E+00  0.00000000E+00  0.00000000E+00
  0.00000000E+00  0.00000000E+00  0.00000000E+00
  0.00000000E+00  0.00000000E+00  0.00000000E+00
  0.00000000E+00  0.00000000E+00  0.00000000E+00
  0.00000000E+00  0.00000000E+00  0.00000000E+00
  0.00000000E+00  0.00000000E+00  0.00000000E+00
  0.00000000E+00  0.00000000E+00  0.00000000E+00
  0.00000000E+00  0.00000000E+00  0.00000000E+00
  0.00000000E+00  0.00000000E+00  0.00000000E+00
  0.00000000E+00  0.00000000E+00  0.00000000E+00
  0.00000000E+00  0.00000000E+00  0.00000000E+00
  0.00000000E+00  0.00000000E+00  0.00000000E+00
  0.00000000E+00  0.00000000E+00  0.00000000E+00
  0.00000000E+00  0.00000000E+00  0.00000000E+00
  0.00000000E+00  0.00000000E+00  0.00000000E+00
  0.00000000E+00  0.00000000E+00  0.00000000E+00
  0.00000000E+00  0.00000000E+00  0.00000000E+00
  0.00000000E+00  0.00000000E+00  0.00000000E+00
  0.00000000E+00  0.00000000E+00  0.00000000E+00
  0.00000000E+00  0.00000000E+00  0.00000000E+00
  0.00000000E+00  0.00000000E+00  0.00000000E+00
  0.00000000E+00  0.00000000E+00  0.00000000E+00
  0.00000000E+00  0.00000000E+00  0.00000000E+00
  0.00000000E+00  0.00000000E+00  0.00000000E+00
  0.00000000E+00  0.00000000E+00  0.00000000E+00
  0.00000000E+00  0.00000000E+00  0.00000000E+00
  0.00000000E+00  0.00000000E+00  0.00000000E+00
  0.00000000E+00  0.00000000E+00  0.00000000E+00
  0.00000000E+00  0.00000000E+00  0.00000000E+00
  0.00000000E+00  0.00000000E+00  0.00000000E+00
  0.00000000E+00  0.00000000E+00  0.00000000E+00
  0.00000000E+00  0.00000000E+00  0.00000000E+00
  0.00000000E+00  0.00000000E+00  0.00000000E+00
  0.00000000E+00  0.00000000E+00  0.00000000E+00
  0.00000000E+00  0.00000000E+00  0.00000000E+00
  0.00000000E+00  0.00000000E+00  0.00000000E+00
  0.00000000E+00  0.00000000E+00  0.00000000E+00
  0.00000000E+00  0.00000000E+00  0.00000000E+00
  0.00000000E+00  0.00000000E+00  0.00000000E+00
  0.00000000E+00  0.00000000E+00  0.00000000E+00
  0.00000000E+00  0.00000000E+00  0.00000000E+00
  0.00000000E+00  0.00000000E+00  0.00000000E+00
  0.00000000E+00  0.00000000E+00  0.00000000E+00
  0.00000000E+00  0.00000000E+00  0.00000000E+00
  0.00000000E+00  0.00000000E+00  0.00000000E+00
  0.00000000E+00  0.00000000E+00  0.00000000E+00
  0.00000000E+00  0.00000000E+00  0.00000000E+00
  0.00000000E+00  0.00000000E+00  0.00000000E+00
  0.00000000E+00  0.00000000E+00  0.00000000E+00
  0.00000000E+00  0.00000000E+00  0.00000000E+00
  0.00000000E+00  0.00000000E+00  0.00000000E+00
  0.00000000E+00  0.00000000E+00  0.00000000E+00
  0.00000000E+00  0.00000000E+00  0.00000000E+00
  0.00000000E+00  0.00000000E+00  0.00000000E+00
  0.00000000E+00  0.00000000E+00  0.00000000E+00
  0.00000000E+00  0.00000000E+00  0.00000000E+00
  0.00000000E+00  0.00000000E+00  0.00000000E+00
  0.00000000E+00  0.00000000E+00  0.00000000E+00
  0.00000000E+00  0.00000000E+00  0.00000000E+00
  0.00000000E+00  0.00000000E+00  0.00000000E+00
  0.00000000E+00  0.00000000E+00  0.00000000E+00
  0.00000000E+00  0.00000000E+00  0.00000000E+00
  0.00000000E+00  0.00000000E+00  0.00000000E+00
  0.00000000E+00  0.00000000E+00  0.00000000E+00
  0.00000000E+00  0.00000000E+00  0.00000000E+00
  0.00000000E+00  0.00000000E+00  0.00000000E+00
  0.00000000E+00  0.00000000E+00  0.00000000E+00
  0.00000000E+00  0.00000000E+00  0.00000000E+00
  0.00000000E+00  0.00000000E+00  0.00000000E+00
  0.00000000E+00  0.00000000E+00  0.00000000E+00
  0.00000000E+00  0.00000000E+00  0.00000000E+00
  0.00000000E+00  0.00000000E+00  0.00000000E+00
  0.00000000E+00  0.00000000E+00  0.00000000E+00
  0.00000000E+00  0.00000000E+00  0.00000000E+00
  0.00000000E+00  0.00000000E+00  0.00000000E+00
  0.00000000E+00  0.00000000E+00  0.00000000E+00
  0.00000000E+00  0.00000000E+00  0.00000000E+00
  0.00000000E+00  0.00000000E+00  0.00000000E+00
  0.00000000E+00  0.00000000E+00  0.00000000E+00
  0.00000000E+00  0.00000000E+00  0.00000000E+00
  0.00000000E+00  0.00000000E+00  0.00000000E+00
  0.00000000E+00  0.00000000E+00  0.00000000E+00
  0.00000000E+00  0.00000000E+00  0.00000000E+00
  0.00000000E+00  0.00000000E+00  0.00000000E+00
  0.00000000E+00  0.00000000E+00  0.00000000E+00
  0.00000000E+00  0.00000000E+00  0.00000000E+00
  0.00000000E+00  0.00000000E+00  0.00000000E+00
  0.00000000E+00  0.00000000E+00  0.00000000E+00
  0.00000000E+00  0.00000000E+00  0.00000000E+00
  0.00000000E+00  0.00000000E+00  0.00000000E+00
  0.00000000E+00  0.00000000E+00  0.00000000E+00
  0.00000000E+00  0.00000000E+00  0.00000000E+00
  0.00000000E+00  0.00000000E+00  0.00000000E+00
  0.00000000E+00  0.00000000E+00  0.00000000E+00
  0.00000000E+00  0.00000000E+00  0.00000000E+00
  0.00000000E+00  0.00000000E+00  0.00000000E+00
  0.00000000E+00  0.00000000E+00  0.00000000E+00
  0.00000000E+00  0.00000000E+00  0.00000000E+00
  0.00000000E+00  0.00000000E+00  0.00000000E+00
  0.00000000E+00  0.00000000E+00  0.00000000E+00
  0.00000000E+00  0.00000000E+00  0.00000000E+00
  0.00000000E+00  0.00000000E+00  0.00000000E+00
  0.00000000E+00  0.00000000E+00  0.00000000E+00
  0.00000000E+00  0.00000000E+00  0.00000000E+00
  0.00000000E+00  0.00000000E+00  0.00000000E+00
  0.00000000E+00  0.00000000E+00  0.00000000E+00
  0.00000000E+00  0.00000000E+00  0.00000000E+00
  0.00000000E+00  0.00000000E+00  0.00000000E+00
  0.00000000E+00  0.00000000E+00  0.00000000E+00
  0.00000000E+00  0.00000000E+00  0.00000000E+00
  0.00000000E+00  0.00000000E+00  0.00000000E+00
  0.00000000E+00  0.00000000E+00  0.00000000E+00
  0.00000000E+00  0.00000000E+00  0.00000000E+00
  0.00000000E+00  0.00000000E+00  0.00000000E+00
  0.00000000E+00  0.00000000E+00  0.00000000E+00
  0.00000000E+00  0.00000000E+00  0.00000000E+00
  0.00000000E+00  0.00000000E+00  0.00000000E+00
  0.00000000E+00  0.00000000E+00  0.00000000E+00
  0.00000000E+00  0.00000000E+00  0.00000000E+00
  0.00000000E+00  0.00000000E+00  0.00000000E+00
  0.00000000E+00  0.00000000E+00  0.00000000E+00
  0.00000000E+00  0.00000000E+00  0.00000000E+00
  0.00000000E+00  0.00000000E+00  0.00000000E+00
  0.00000000E+00  0.00000000E+00  0.00000000E+00
  0.00000000E+00  0.00000000E+00  0.00000000E+00
  0.00000000E+00  0.00000000E+00  0.00000000E+00
  0.00000000E+00  0.00000000E+00  0.00000000E+00
  0.00000000E+00  0.00000000E+00  0.00000000E+00
  0.00000000E+00  0.00000000E+00  0.00000000E+00
  0.00000000E+00  0.00000000E+00  0.00000000E+00
  0.00000000E+00  0.00000000E+00  0.00000000E+00
  0.00000000E+00  0.00000000E+00  0.00000000E+00
  0.00000000E+00  0.00000000E+00  0.00000000E+00
  0.00000000E+00  0.00000000E+00  0.00000000E+00
  0.00000000E+00  0.00000000E+00  0.00000000E+00
  0.00000000E+00  0.00000000E+00  0.00000000E+00
  0.00000000E+00  0.00000000E+00  0.00000000E+00
  0.00000000E+00  0.00000000E+00  0.00000000E+00
  0.00000000E+00  0.00000000E+00  0.00000000E+00
  0.00000000E+00  0.00000000E+00  0.00000000E+00
  0.00000000E+00  0.00000000E+00  0.00000000E+00
  0.00000000E+00  0.00000000E+00  0.00000000E+00
  0.00000000E+00  0.00000000E+00  0.00000000E+00
  0.00000000E+00  0.00000000E+00  0.00000000E+00
  0.00000000E+00  0.00000000E+00  0.00000000E+00
  0.00000000E+00  0.00000000E+00  0.00000000E+00
  0.00000000E+00  0.00000000E+00  0.00000000E+00
  0.00000000E+00  0.00000000E+00  0.00000000E+00
  0.00000000E+00  0.00000000E+00  0.00000000E+00
  0.00000000E+00  0.00000000E+00  0.00000000E+00
  0.00000000E+00  0.00000000E+00  0.00000000E+00
  0.00000000E+00  0.00000000E+00  0.00000000E+00
  0.00000000E+00  0.00000000E+00  0.00000000E+00
  0.00000000E+00  0.00000000E+00  0.00000000E+00
  0.00000000E+00  0.00000000E+00  0.00000000E+00
  0.00000000E+00  0.00000000E+00  0.00000000E+00
  0.00000000E+00  0.00000000E+00  0.00000000E+00
  0.00000000E+00  0.00000000E+00  0.00000000E+00
  0.00000000E+00  0.00000000E+00  0.00000000E+00
  0.00000000E+00  0.00000000E+00  0.00000000E+00
  0.00000000E+00  0.00000000E+00  0.00000000E+00
  0.00000000E+00  0.00000000E+00  0.00000000E+00
  0.00000000E+00  0.00000000E+00  0.00000000E+00
  0.00000000E+00  0.00000000E+00  0.00000000E+00
  0.00000000E+00  0.00000000E+00  0.00000000E+00
  0.00000000E+00  0.00000000E+00  0.00000000E+00
  0.00000000E+00  0.00000000E+00  0.00000000E+00
  0.00000000E+00  0.00000000E+00  0.00000000E+00
  0.00000000E+00  0.00000000E+00  0.00000000E+00
  0.00000000E+00  0.00000000E+00  0.00000000E+00
  0.00000000E+00  0.00000000E+00  0.00000000E+00
  0.00000000E+00  0.00000000E+00  0.00000000E+00
  0.00000000E+00  0.00000000E+00  0.00000000E+00
  0.00000000E+00  0.00000000E+00  0.00000000E+00
  0.00000000E+00  0.00000000E+00  0.00000000E+00
  0.00000000E+00  0.00000000E+00  0.00000000E+00
  0.00000000E+00  0.00000000E+00  0.00000000E+00
  0.00000000E+00  0.00000000E+00  0.00000000E+00
  0.00000000E+00  0.00000000E+00  0.00000000E+00
  0.00000000E+00  0.00000000E+00  0.00000000E+00
  0.00000000E+00  0.00000000E+00  0.00000000E+00
  0.00000000E+00  0.00000000E+00  0.00000000E+00
  0.00000000E+00  0.00000000E+00  0.00000000E+00
  0.00000000E+00  0.00000000E+00  0.00000000E+00
  0.00000000E+00  0.00000000E+00  0.00000000E+00
  0.00000000E+00  0.00000000E+00  0.00000000E+00
  0.00000000E+00  0.00000000E+00  0.00000000E+00
  0.00000000E+00  0.00000000E+00  0.00000000E+00
  0.00000000E+00  0.00000000E+00  0.00000000E+00
  0.00000000E+00  0.00000000E+00  0.00000000E+00
  0.00000000E+00  0.00000000E+00  0.00000000E+00
  0.00000000E+00  0.00000000E+00  0.00000000E+00
  0.00000000E+00  0.00000000E+00  0.00000000E+00
  0.00000000E+00  0.00000000E+00  0.00000000E+00
  0.00000000E+00  0.00000000E+00  0.00000000E+00
  0.00000000E+00  0.00000000E+00  0.00000000E+00
  0.00000000E+00  0.00000000E+00  0.00000000E+00
  0.00000000E+00  0.00000000E+00  0.00000000E+00
  0.00000000E+00  0.00000000E+00  0.00000000E+00
  0.00000000E+00  0.00000000E+00  0.00000000E+00
  0.00000000E+00  0.00000000E+00  0.00000000E+00
  0.00000000E+00  0.00000000E+00  0.00000000E+00
  0.00000000E+00  0.00000000E+00  0.00000000E+00
  0.00000000E+00  0.00000000E+00  0.00000000E+00
  0.00000000E+00  0.00000000E+00  0.00000000E+00
