sII.xyz
  1.000000
          17.310000        0.000000        0.000000 
           0.000000       17.310000        0.000000 
           0.000000        0.000000       17.310000 
  H  O  
  272  136  
Selective
Cartesian
         5.759980        6.837920        5.689550 T  T  T  
         6.842720        5.779840        5.695180 T  T  T  
         5.539140        5.526320        7.656720 T  T  T  
         6.127160        4.952170        8.928120 T  T  T  
         8.030330        4.600620       10.454660 T  T  T  
         7.456180        3.329220        9.866640 T  T  T  
         8.951310        4.252340        8.315590 T  T  T  
         9.249460        4.613620        6.875980 T  T  T  
         8.581690        4.669660        4.621280 T  T  T  
         8.944320        6.107400        4.926730 T  T  T  
         4.600620        6.855340        9.279670 T  T  T  
         3.329220        7.443360        9.853820 T  T  T  
         4.226950        8.982850        8.347280 T  T  T  
         4.586430       10.421870        8.044150 T  T  T  
         4.866200        8.927060        6.088410 T  T  T  
         4.569040        8.571350        4.647200 T  T  T  
         6.787220        9.298910        4.598120 T  T  T  
         7.391290        9.876710        3.335920 T  T  T  
         9.000130        8.364950        4.276420 T  T  T  
        10.445630        8.075830        4.621150 T  T  T  
        11.609510       11.609610        6.827920 T  T  T  
        11.945140       11.948890        5.391210 T  T  T  
        11.190300       12.260790        9.019270 T  T  T  
        12.260790       11.190300        9.019270 T  T  T  
         8.972740       13.099490        8.972740 T  T  T  
         9.838210       13.990460        9.838210 T  T  T  
         8.030330       12.709380        6.855340 T  T  T  
         7.456180       13.980780        7.443360 T  T  T  
         9.651230       11.758540        5.521910 T  T  T  
         8.368220       11.186810        4.957200 T  T  T  
        12.716050        9.239140       10.437840 T  T  T  
        13.068580        8.951670        8.993890 T  T  T  
        14.014310        7.446970        7.447070 T  T  T  
        12.737160        6.869790        8.019470 T  T  T  
        11.821190        9.664860        5.528040 T  T  T  
        12.407390        8.397320        6.112500 T  T  T  
         5.687110       10.485360       11.609010 T  T  T  
         5.368550       11.926740       11.944950 T  T  T  
         6.127160       12.357830        8.381880 T  T  T  
         5.539140       11.783680        9.653280 T  T  T  
         8.928120       12.357830       11.182840 T  T  T  
         7.656720       11.783680       11.770860 T  T  T  
         4.565550        8.735960       12.658980 T  T  T  
         4.873050        8.378120       11.220480 T  T  T  
         7.874450        6.835840       12.591910 T  T  T  
         6.798430        7.900760       12.598280 T  T  T  
         8.953750        8.991830       13.038610 T  T  T  
         9.257960       10.431070       12.680940 T  T  T  
        11.622890        6.824640       11.609010 T  T  T  
        11.941450        5.383260       11.944950 T  T  T  
        11.770860        5.526320        9.653280 T  T  T  
        11.182840        4.952170        8.381880 T  T  T  
         9.661280        5.514840       11.795340 T  T  T  
         8.777940        4.649160       12.668380 T  T  T  
        11.253910        8.923650       12.390940 T  T  T  
        12.690380        8.570040       12.712500 T  T  T  
        14.795210       15.938790       15.865700 T  T  T  
        15.865700       15.938790       14.795210 T  T  T  
        16.715540       15.530980       12.696380 T  T  T  
        17.013690       16.970590       13.057660 T  T  T  
        12.716220       16.721670       15.524920 T  T  T  
        13.058400       17.013880       16.970400 T  T  T  
        17.034570       13.126680       17.023740 T  T  T  
        16.169970       14.005390       16.144970 T  T  T  
        10.101540       10.026030       14.794890 T  T  T  
        11.169610       10.026920       15.867790 T  T  T  
        13.704210        9.019270       14.774700 T  T  T  
        14.774700        9.019270       13.704210 T  T  T  
        13.268620       10.434020       16.715540 T  T  T  
        12.907340        8.994410       17.013690 T  T  T  
         8.898910       13.563500       14.774600 T  T  T  
         8.556630       13.271350       13.329120 T  T  T  
        10.397940       13.247110       16.691700 T  T  T  
         9.818920       11.971050       16.118720 T  T  T  
        14.794780       10.107340       10.022680 T  T  T  
        15.877520       11.165430       10.017050 T  T  T  
        16.111180        9.866640       11.984220 T  T  T  
        16.685330       10.454660       13.255620 T  T  T  
        15.579510       13.334420        9.356020 T  T  T  
        16.641090       13.322450       10.435280 T  T  T  
        13.353080       13.354820        8.582600 T  T  T  
        13.635220       14.796300        8.949250 T  T  T  
        11.155670       15.936560       10.028440 T  T  T  
         9.719330       16.274810        9.690190 T  T  T  
         9.271520       15.513600       13.254460 T  T  T  
         9.853230       16.097070       11.984390 T  T  T  
        12.906600       17.013880        8.994590 T  T  T  
        13.248780       16.721670       10.440080 T  T  T  
         7.267110        7.278230       14.805060 T  T  T  
         7.624760        7.625210       16.234600 T  T  T  
         3.605790        8.290730       14.774700 T  T  T  
         2.535300        8.290730       13.704210 T  T  T  
         4.054380        6.855340       16.685330 T  T  T  
         5.325780        7.443360       16.111180 T  T  T  
         8.331960        3.619540       14.788160 T  T  T  
         8.317470        2.550960       13.715860 T  T  T  
         6.912060        4.062890       16.691700 T  T  T  
         7.491080        5.338950       16.118720 T  T  T  
         1.432480        2.510420       15.947950 T  T  T  
         2.515220        1.452340       15.942320 T  T  T  
         0.624670        1.799660       12.709380 T  T  T  
         1.198820        1.211640       13.980780 T  T  T  
         4.593780        0.588330       15.524920 T  T  T  
         4.251600        0.296120       16.970400 T  T  T  
         1.741610        4.663360       16.602930 T  T  T  
         0.674740        4.669320       15.528850 T  T  T  
         7.590670        1.035190        9.690190 T  T  T  
         6.154330        1.373440       10.028440 T  T  T  
         8.337260        0.317740       12.865510 T  T  T  
         7.471790        1.183210       11.974540 T  T  T  
         3.959820        1.794830        9.390440 T  T  T  
         3.980010        0.719290       10.455680 T  T  T  
         4.004940        4.014860        8.559770 T  T  T  
         3.137550        3.147430        7.672580 T  T  T  
         1.360100        6.157600       10.029040 T  T  T  
         1.038890        7.598620        9.694100 T  T  T  
         1.183210        7.471790       11.974540 T  T  T  
         0.317740        8.337260       12.865510 T  T  T  
         1.730340        4.059620        9.249420 T  T  T  
         0.297350        4.420120        8.920080 T  T  T  
         6.140210       15.938790        7.210700 T  T  T  
         7.210700       15.938790        6.140210 T  T  T  
         8.358690       16.970590        4.402660 T  T  T  
         8.060540       15.530980        4.041380 T  T  T  
         4.038180       15.530100        8.055770 T  T  T  
         4.400810       16.967840        8.361220 T  T  T  
         8.730900       13.278620        3.987910 T  T  T  
         8.388720       13.570830        2.542420 T  T  T  
         2.535580       13.563690        8.361920 T  T  T  
         3.978670       13.269000        8.711980 T  T  T  
         2.514690       10.103930        7.287230 T  T  T  
         1.435570       11.165690        7.294050 T  T  T  
         1.198820        9.866640        5.325780 T  T  T  
         0.624670       10.454660        4.054380 T  T  T  
         3.115860        7.656720        3.128680 T  T  T  
         2.527840        8.928120        3.702830 T  T  T  
         0.540430       13.260090        6.895910 T  T  T  
         0.241310       12.897870        8.335080 T  T  T  
         7.590670        9.690190        1.035190 T  T  T  
         6.154330       10.028440        1.373440 T  T  T  
         4.402660        8.951310        0.339410 T  T  T  
         4.041380        9.249460        1.779020 T  T  T  
         8.379570       12.838320        0.286270 T  T  T  
         7.514970       11.959610        1.165030 T  T  T  
         1.373440       15.936560        2.500670 T  T  T  
         1.035190       16.274810        1.064330 T  T  T  
         1.783750       16.717220        4.601700 T  T  T  
         0.341060       17.015220        4.252810 T  T  T  
         3.329220       16.098360        1.198820 T  T  T  
         4.600620       15.510340        0.624670 T  T  T  
         1.163920       13.993950        1.191290 T  T  T  
         1.742940       12.717890        0.618310 T  T  T  
        15.936560        7.281560        6.154330 T  T  T  
        16.274810        7.619810        7.590670 T  T  T  
        16.715540        6.875980        4.041380 T  T  T  
        17.013690        8.315590        4.402660 T  T  T  
        14.763220        8.369550        3.730320 T  T  T  
        13.326940        8.737730        4.035980 T  T  T  
        16.135960        5.337190        7.467300 T  T  T  
        15.571730        4.052950        8.036740 T  T  T  
        13.364390        3.966650        8.747040 T  T  T  
        14.222370        3.108220        9.651950 T  T  T  
        11.169790        1.444300        7.283790 T  T  T  
        10.099300        2.514790        7.283790 T  T  T  
         9.853820        1.211640        5.325780 T  T  T  
         9.279670        1.799660        4.054380 T  T  T  
        13.329060        0.712970        6.856000 T  T  T  
        13.369960        1.780010        7.929150 T  T  T  
         8.917020        3.710090        2.526290 T  T  T  
         7.655370        3.125380        3.124830 T  T  T  
        15.949900        2.497400        1.374040 T  T  T  
        16.271110        1.056380        1.039100 T  T  T  
        15.507750        0.624250        4.594370 T  T  T  
        16.104540        1.201090        3.328280 T  T  T  
        12.720480        0.617410        1.801210 T  T  T  
        13.982130        1.202120        1.202670 T  T  T  
        15.581030        4.595140        0.591350 T  T  T  
        17.014900        4.233510        0.267070 T  T  T  
        10.005870        6.146310        1.439370 T  T  T  
        10.028900        7.210980        2.515400 T  T  T  
        11.984220        7.456180        1.211640 T  T  T  
        13.255620        8.030330        1.799660 T  T  T  
        10.383970        4.059860        0.591350 T  T  T  
         8.950100        4.421490        0.267070 T  T  T  
        11.539760        2.956160       15.497060 T  T  T  
        10.469250        2.962310       14.426600 T  T  T  
        12.686190        3.988090       17.234840 T  T  T  
        12.388040        2.548480       17.596120 T  T  T  
        11.239560       -0.264610       13.600800 T  T  T  
        11.818580        1.011450       14.173780 T  T  T  
         2.956290       10.467710       14.426800 T  T  T  
         2.956290       11.538200       15.497290 T  T  T  
         3.733040       11.203480       17.596120 T  T  T  
         4.031190       12.643090       17.234840 T  T  T  
        -0.262020       12.365090       14.783710 T  T  T  
         0.999630       11.780380       14.185170 T  T  T  
        14.354360        6.827400       14.354470 T  T  T  
        14.016720        5.389930       14.020470 T  T  T  
        13.607170        6.127160       17.583120 T  T  T  
        14.181320        5.539140       16.311720 T  T  T  
        17.583120        6.127160       13.607170 T  T  T  
        16.311720        5.539140       14.181320 T  T  T  
         6.842190       14.431430       14.350270 T  T  T  
         5.763070       15.493190       14.343450 T  T  T  
         5.532960       14.183590       16.310780 T  T  T  
         6.129750       13.606750       17.576870 T  T  T  
         6.056470       17.577640       13.573850 T  T  T  
         4.622600       17.216010       13.249560 T  T  T  
         1.812280        2.875160        5.695180 T  T  T  
         2.895020        1.817080        5.689550 T  T  T  
        -0.350440        3.605380        6.127540 T  T  T  
        -0.368270        2.534890        5.057190 T  T  T  
         3.787070       -0.277590        6.086590 T  T  T  
         4.086190        0.084630        4.647420 T  T  T  
         2.952170       14.352670       10.482190 T  T  T  
         3.293710       14.019910       11.919030 T  T  T  
         1.007960       14.165710       11.799290 T  T  T  
         0.116990       13.300240       12.664760 T  T  T  
         3.163580       16.298550       11.791210 T  T  T  
         2.584560       17.574610       12.364190 T  T  T  
        15.497720        2.875160       11.614820 T  T  T  
        14.414980        1.817070       11.620450 T  T  T  
        17.576280        3.739170       11.197420 T  T  T  
        17.234100        4.031380       12.642910 T  T  T  
        13.277600        0.093990       12.715430 T  T  T  
        14.711470       -0.267640       12.391150 T  T  T  
        15.496740       14.357650        5.763000 T  T  T  
        14.441420       14.369650        6.848380 T  T  T  
        17.596120       14.761520        4.921960 T  T  T  
        17.234840       13.321910        4.623810 T  T  T  
        13.257930       17.165820        4.613760 T  T  T  
        14.122530       16.287110        5.492530 T  T  T  
         5.364210        3.270490        3.286820 T  T  T  
         5.688100        1.829830        2.952910 T  T  T  
         5.526320        3.115860        0.998280 T  T  T  
         4.952170        2.527840       -0.273120 T  T  T  
         6.069110       -0.335860        3.620420 T  T  T  
         5.002240       -0.341820        2.546340 T  T  T  
         1.826830        5.700850        2.953950 T  T  T  
         3.263160        5.358920        3.288540 T  T  T  
         4.009760        4.645240        0.116990 T  T  T  
         3.144290        5.510710        1.007960 T  T  T  
         0.075900        4.623620        3.987910 T  T  T  
        -0.266280        4.915830        2.542420 T  T  T  
        14.353710       10.467710        2.883200 T  T  T  
        14.353710       11.538200        1.812710 T  T  T  
        13.323560       12.687720        0.074690 T  T  T  
        14.766250       12.389720       -0.274200 T  T  T  
        16.310370       11.780380        3.124830 T  T  T  
        17.572020       12.365090        2.526290 T  T  T  
        10.482340       14.354920        2.955080 T  T  T  
        11.919450       14.018300        3.291720 T  T  T  
        12.357830       14.782160       -0.273120 T  T  T  
        11.783680       14.194140        0.998280 T  T  T  
        11.239560       17.574610        3.709190 T  T  T  
        11.818580       16.298550        3.136210 T  T  T  
        -0.535240       -0.535240       -0.585880 T  T  T  
         0.535240        0.535240       -0.585880 T  T  T  
         4.861420        4.854530        4.901370 T  T  T  
         3.790930        3.784050        4.903800 T  T  T  
         9.240880        9.190240       -0.535240 T  T  T  
         9.240880        8.119760        0.535240 T  T  T  
         0.535240        9.240880        8.119760 T  T  T  
        -0.535240        9.240880        9.190240 T  T  T  
         8.119760       -0.535240        8.069120 T  T  T  
         9.190240        0.535240        8.069120 T  T  T  
        13.568380       13.524620        4.855920 T  T  T  
        13.568370       12.454130        3.785430 T  T  T  
         4.864070       13.525920       13.580370 T  T  T  
         3.793580       12.455440       13.577960 T  T  T  
        12.445930        3.729570       13.525880 T  T  T  
        13.516430        3.731980       12.455400 T  T  T  
         5.924870        5.924870        5.924870 T  T  T  
         5.321790        5.321790        8.566200 T  T  T  
         7.660710        4.238700        9.649290 T  T  T  
         9.649290        4.238700        7.660710 T  T  T  
         8.566200        5.321790        5.321790 T  T  T  
         4.238700        7.660710        9.649290 T  T  T  
         4.203710        9.638090        7.649890 T  T  T  
         5.264390        8.548440        5.304620 T  T  T  
         7.591040        9.687210        4.252660 T  T  T  
         9.656720        7.668560        4.263400 T  T  T  
        11.385130       11.385130        5.924870 T  T  T  
        11.988210       11.988210        8.566200 T  T  T  
         9.649290       13.071300        9.649290 T  T  T  
         7.660710       13.071300        7.660710 T  T  T  
         8.743800       11.988210        5.321790 T  T  T  
        13.071300        9.649290        9.649290 T  T  T  
        13.106290        7.671900        7.649890 T  T  T  
        12.045610        8.761560        5.304620 T  T  T  
         5.924870       11.385130       11.385130 T  T  T  
         5.321790       11.988210        8.743800 T  T  T  
         8.566200       11.988210       11.988210 T  T  T  
         5.264390        8.761560       12.005370 T  T  T  
         7.591040        7.622790       13.057340 T  T  T  
         9.656720        9.641440       13.046600 T  T  T  
        11.385130        5.924870       11.385130 T  T  T  
        11.988210        5.321790        8.743800 T  T  T  
         8.743800        5.321790       11.988210 T  T  T  
        12.045610        8.548440       12.005370 T  T  T  
        15.712630       15.712630       15.712630 T  T  T  
        16.315710       16.315710       13.071300 T  T  T  
        13.071300       16.315710       16.315710 T  T  T  
        16.373110       13.089060       16.332880 T  T  T  
        10.252370       10.252370       15.712630 T  T  T  
        13.976790        8.566200       13.976790 T  T  T  
        12.893700        9.649290       16.315710 T  T  T  
         8.531210       13.965600       13.987610 T  T  T  
         9.591890       12.875940       16.332880 T  T  T  
        15.712630       10.252370       10.252370 T  T  T  
        16.315710        9.649290       12.893700 T  T  T  
        16.373110       12.875940        9.632130 T  T  T  
        14.046460       14.014710        8.580160 T  T  T  
        10.252370       15.712630       10.252370 T  T  T  
         9.649290       16.315710       12.893700 T  T  T  
        12.893700       16.315710        9.649290 T  T  T  
         7.057630        7.057630       15.712630 T  T  T  
         3.333210        8.743800       13.976790 T  T  T  
         4.416300        7.660710       16.315710 T  T  T  
         8.778790        3.344410       13.987610 T  T  T  
         7.718110        4.434060       16.332880 T  T  T  
         1.597370        1.597370       15.712630 T  T  T  
         0.994290        0.994290       13.071300 T  T  T  
         4.238700        0.994290       16.315710 T  T  T  
         0.936890        4.220940       16.332880 T  T  T  
         7.057630        1.597370       10.252370 T  T  T  
         7.660710        0.994290       12.893700 T  T  T  
         4.416300        0.994290        9.649290 T  T  T  
         3.325780        3.341060        8.590900 T  T  T  
         1.597370        7.057630       10.252370 T  T  T  
         0.994290        7.660710       12.893700 T  T  T  
         0.936890        4.434060        9.632130 T  T  T  
         7.057630       15.712630        7.057630 T  T  T  
         7.660710       16.315710        4.416300 T  T  T  
         4.416300       16.315710        7.660710 T  T  T  
         8.743800       13.976790        3.333210 T  T  T  
         3.325780       13.968940        8.719100 T  T  T  
         1.597370       10.252370        7.057630 T  T  T  
         0.994290        9.649290        4.416300 T  T  T  
         3.333210        8.566200        3.333210 T  T  T  
         0.936890       12.875940        7.677880 T  T  T  
         7.057630       10.252370        1.597370 T  T  T  
         4.416300        9.649290        0.994290 T  T  T  
         7.718110       12.875940        0.977130 T  T  T  
         1.597370       15.712630        1.597370 T  T  T  
         0.994290       16.315710        4.238700 T  T  T  
         4.238700       16.315710        0.994290 T  T  T  
         0.936890       13.089060        0.977130 T  T  T  
        15.712630        7.057630        7.057630 T  T  T  
        16.315710        7.660710        4.416300 T  T  T  
        13.976790        8.743800        3.333210 T  T  T  
        16.373110        4.434060        7.677880 T  T  T  
        14.046460        3.295290        8.729840 T  T  T  
        10.252370        1.597370        7.057630 T  T  T  
         9.649290        0.994290        4.416300 T  T  T  
        12.893700        0.994290        7.660710 T  T  T  
         8.566200        3.333210        3.333210 T  T  T  
        15.712630        1.597370        1.597370 T  T  T  
        16.315710        0.994290        4.238700 T  T  T  
        13.071300        0.994290        0.994290 T  T  T  
        16.373110        4.220940        0.977130 T  T  T  
        10.252370        7.057630        1.597370 T  T  T  
        12.893700        7.660710        0.994290 T  T  T  
         9.591890        4.434060        0.977130 T  T  T  
        11.385130        2.730130       14.579870 T  T  T  
        11.988210        3.333210       17.221200 T  T  T  
        12.045610        0.106560       13.959620 T  T  T  
         2.730130       11.385130       14.579870 T  T  T  
         3.333210       11.988210       17.221200 T  T  T  
         0.088800       11.988210       13.976790 T  T  T  
        14.579870        5.924870       14.579870 T  T  T  
        13.976790        5.321790       17.221200 T  T  T  
        17.221200        5.321790       13.976790 T  T  T  
         5.924870       14.579870       14.579870 T  T  T  
         5.321790       13.976790       17.221200 T  T  T  
         5.264390       17.203440       13.959620 T  T  T  
         2.730130        2.730130        5.924870 T  T  T  
         0.088800        3.333210        5.321790 T  T  T  
         3.390610        0.106560        5.304620 T  T  T  
         2.730130       14.579870       11.385130 T  T  T  
         0.088800       13.976790       11.988210 T  T  T  
         3.390610       17.203440       12.005370 T  T  T  
        14.579870        2.730130       11.385130 T  T  T  
        17.221200        3.333210       11.988210 T  T  T  
        13.919390        0.106560       12.005370 T  T  T  
        14.579870       14.579870        5.924870 T  T  T  
        17.221200       13.976790        5.321790 T  T  T  
        13.919390       17.203440        5.304620 T  T  T  
         5.924870        2.730130        2.730130 T  T  T  
         5.321790        3.333210        0.088800 T  T  T  
         5.264390        0.106560        3.350370 T  T  T  
         2.730130        5.924870        2.730130 T  T  T  
         3.333210        5.321790        0.088800 T  T  T  
         0.088800        5.321790        3.333210 T  T  T  
        14.579870       11.385130        2.730130 T  T  T  
        13.976790       11.988210        0.088800 T  T  T  
        17.221200       11.988210        3.333210 T  T  T  
        11.385130       14.579870        2.730130 T  T  T  
        11.988210       13.976790        0.088800 T  T  T  
        12.045610       17.203440        3.350370 T  T  T  
         0.000000        0.000000        0.000000 T  T  T  
         4.327480        4.316650        4.316710 T  T  T  
         8.655000        8.655000        0.000000 T  T  T  
         0.000000        8.655000        8.655000 T  T  T  
         8.655000        0.000000        8.655000 T  T  T  
        12.982520       12.993350        4.316710 T  T  T  
         4.327480       12.993350       12.993290 T  T  T  
        12.982520        4.316650       12.993300 T  T  T  
